BEGIN IONS
TITLE=CCMSLIB00004681485
PEPMASS=891.286
CHARGE=1+
COMPOUND_NAME=Beta-Methoxy-Asn-Albicidin
ADDUCT=[M+H]1+
SMILES=COc1c(NC(=O)c2ccc(NC(=O)c3ccc(NC(=O)C(NC(=O)c4ccc(NC(=O)C(C)=Cc5ccc(O)cc5)cc4)C(OC)C(N)=O)cc3)c(OC)c2O)ccc(C(=O)O)c1O
SCANS=3713
COLLISION_ENERGY=30.0
MS_MANUFACTURER=Thermo
MS_MASS_ANALYZER=orbitrap
MS_IONISATION=ESI
SPECTRUM_ID=CCMSLIB00004681485
IONMODE=positive
MS_LEVEL=2
PRECURSOR_MZ=891.286
235.166672 0.0 
235.25 0.0 
235.333328 0.0 
235.416672 0.0 
235.5 0.0 
235.583328 0.0 
235.666672 0.0 
235.75 0.0 
235.833328 0.0 
235.916672 0.0 
236.0 0.0 
236.083328 0.0 
236.166672 0.0 
236.25 0.0 
236.333328 0.0 
236.416672 0.0 
236.5 0.0 
236.583328 0.0 
236.666672 0.0 
236.75 0.0 
236.833328 0.0 
236.916672 0.0 
237.0 0.0 
237.083328 0.0 
237.166672 0.0 
237.25 0.0 
237.333328 0.0 
237.416672 0.0 
237.5 0.0 
237.583328 0.0 
237.666672 0.0 
237.75 0.0 
237.833328 0.0 
237.916672 0.0 
238.0 0.0 
238.083328 0.0 
238.166672 0.0 
238.25 0.0 
238.333328 0.0 
238.416672 0.0 
238.5 0.0 
238.583328 0.0 
238.666672 0.0 
238.75 0.0 
238.833328 0.0 
238.916672 0.0 
239.0 0.0 
239.083328 0.0 
239.166672 0.0 
239.25 0.0 
239.333328 0.0 
239.416672 0.0 
239.5 0.0 
239.583328 0.0 
239.666672 0.0 
239.75 0.0 
239.833328 0.0 
239.916672 0.0 
240.0 0.0 
240.083328 0.0 
240.166672 0.0 
240.25 0.0 
240.333328 0.0 
240.416672 0.0 
240.5 0.0 
240.583328 0.0 
240.666672 0.0 
240.75 0.0 
240.833328 0.0 
240.916672 0.0 
241.0 0.0 
241.083328 0.0 
241.166672 0.0 
241.25 0.0 
241.333328 0.0 
241.416672 0.0 
241.5 0.0 
241.583328 0.0 
241.666672 0.0 
241.75 0.0 
241.833328 0.0 
241.916672 0.0 
242.0 0.0 
242.083328 0.0 
242.166672 0.0 
242.25 0.0 
242.333328 0.0 
242.416672 0.0 
242.5 0.0 
242.583328 0.0 
242.666672 0.0 
242.75 0.0 
242.833328 0.0 
242.916672 0.0 
243.0 0.0 
243.083328 0.0 
243.166672 0.0 
243.25 0.0 
243.333328 0.0 
243.416672 0.0 
243.5 0.0 
243.583328 0.0 
243.666672 0.0 
243.75 0.0 
243.833328 0.0 
243.916672 0.0 
244.0 0.0 
244.083328 0.0 
244.166672 0.0 
244.25 0.0 
244.333328 0.0 
244.416672 0.0 
244.5 0.0 
244.583328 0.0 
244.666672 0.0 
244.75 0.0 
244.833328 0.0 
244.916672 0.0 
245.0 0.0 
245.083328 0.0 
245.166672 0.0 
245.25 0.0 
245.333328 0.0 
245.416672 0.0 
245.5 0.0 
245.583328 0.0 
245.666672 0.0 
245.75 0.0 
245.833328 0.0 
245.916672 0.0 
246.0 0.0 
246.083328 0.0 
246.166672 0.0 
246.25 0.0 
246.333328 0.0 
246.416672 0.0 
246.5 0.0 
246.583328 0.0 
246.666672 0.0 
246.75 0.0 
246.833328 0.0 
246.916672 0.0 
247.0 0.0 
247.083328 0.0 
247.166672 0.0 
247.25 0.0 
247.333328 0.0 
247.416672 0.0 
247.5 0.0 
247.583328 0.0 
247.666672 0.0 
247.75 0.0 
247.833328 0.0 
247.916672 0.0 
248.0 0.0 
248.083328 0.0 
248.166672 0.0 
248.25 0.0 
248.333328 0.0 
248.416672 0.0 
248.5 0.0 
248.583328 0.0 
248.666672 0.0 
248.75 0.0 
248.833328 0.0 
248.916672 0.0 
249.0 0.0 
249.083328 0.0 
249.166672 0.0 
249.25 0.0 
249.333328 0.0 
249.416672 0.0 
249.5 0.0 
249.583328 0.0 
249.666672 0.0 
249.916672 0.51057 
250.25 0.0 
250.5 2.7e-05 
250.833328 0.0 
251.0 0.0 
251.333328 0.0 
251.583328 0.0 
251.916672 0.0 
252.083328 0.0 
252.416672 0.0 
252.583328 0.0 
252.916672 0.0 
253.0 0.0 
253.166672 0.0 
253.5 0.0 
253.666672 0.0 
254.0 0.0 
254.083328 0.0 
254.25 0.0 
254.583328 0.0 
254.75 0.0 
254.916672 0.0 
255.0 0.0 
255.083328 0.0 
255.166672 0.0 
255.25 0.0 
255.333328 0.0 
255.416672 0.0 
255.5 0.0 
255.583328 0.0 
255.666672 0.0 
255.75 0.0 
255.833328 0.0 
255.916672 0.0 
256.0 0.0 
256.083344 0.0 
256.166656 0.0 
256.25 0.0 
256.333344 0.0 
256.416656 0.0 
256.5 0.0 
256.583344 0.0 
256.666656 0.0 
256.75 0.0 
256.833344 0.0 
256.916656 0.0 
257.0 0.0 
257.083344 0.0 
257.166656 0.0 
257.25 0.0 
257.333344 0.0 
257.416656 0.0 
257.5 0.0 
257.583344 0.0 
257.666656 0.0 
257.75 0.0 
257.833344 0.0 
257.916656 0.0 
258.0 0.0 
258.083344 0.0 
258.166656 0.0 
258.25 0.0 
258.333344 0.0 
258.416656 0.0 
258.5 0.0 
258.583344 0.0 
258.666656 0.0 
258.75 0.0 
258.833344 0.0 
258.916656 0.0 
259.0 0.0 
259.083344 0.0 
259.166656 0.0 
259.25 0.0 
259.333344 0.0 
259.416656 0.0 
259.5 0.0 
259.583344 0.0 
259.666656 0.0 
259.75 0.0 
259.833344 0.0 
259.916656 0.0 
260.0 0.0 
260.083344 0.0 
260.166656 0.0 
260.25 0.0 
260.333344 0.0 
260.416656 0.0 
260.5 0.0 
260.583344 0.0 
260.666656 0.0 
260.75 0.0 
260.833344 0.0 
260.916656 0.0 
261.0 0.0 
261.083344 0.0 
261.166656 0.0 
261.25 0.0 
261.333344 0.0 
261.416656 0.0 
261.5 0.0 
261.583344 0.0 
261.666656 0.0 
261.75 0.0 
261.833344 0.0 
261.916656 0.0 
262.0 0.0 
262.083344 0.0 
262.166656 0.0 
262.25 0.0 
262.333344 0.0 
262.416656 0.0 
262.5 0.0 
262.583344 0.0 
262.666656 0.0 
262.75 0.0 
262.833344 0.0 
262.916656 0.0 
263.0 0.0 
263.083344 0.0 
263.166656 0.0 
263.25 0.0 
263.333344 0.0 
264.083344 37.315838 
264.666656 0.0 
264.833344 0.000822 
265.166656 0.0 
265.416656 0.0 
265.75 0.0 
265.916656 0.0 
266.25 0.0 
266.5 0.0 
266.916656 0.752671 
267.333344 0.0 
267.5 5.8e-05 
267.833344 0.0 
268.083344 0.0 
268.416656 0.0 
268.583344 0.0 
268.916656 0.0 
269.083344 0.0 
269.416656 0.0 
269.5 0.0 
269.666656 0.0 
270.0 0.0 
270.166656 0.0 
270.5 0.0 
270.583344 0.0 
270.75 0.0 
271.083344 0.0 
271.25 0.0 
271.583344 0.0 
271.666656 0.0 
271.833344 0.0 
272.0 0.0 
272.083344 0.0 
272.166656 0.0 
272.25 0.0 
272.333344 0.0 
272.416656 0.0 
272.5 0.0 
272.583344 0.0 
272.666656 0.0 
272.75 0.0 
272.833344 0.0 
272.916656 0.0 
273.0 0.0 
273.083344 0.0 
273.166656 0.0 
273.25 0.0 
273.333344 0.0 
273.416656 0.0 
273.5 0.0 
273.583344 0.0 
273.666656 0.0 
273.75 0.0 
273.833344 0.0 
273.916656 0.0 
274.0 0.0 
274.083344 0.0 
274.166656 0.0 
274.25 0.0 
274.333344 0.0 
274.416656 0.0 
274.5 0.0 
274.583344 0.0 
274.666656 0.0 
274.75 0.0 
274.833344 0.0 
274.916656 0.0 
275.0 0.0 
275.083344 0.0 
275.166656 0.0 
275.25 0.0 
275.333344 0.0 
275.416656 0.0 
275.5 0.0 
275.583344 0.0 
275.666656 0.0 
275.75 0.0 
275.833344 0.0 
275.916656 0.0 
276.0 0.0 
276.083344 0.0 
276.166656 0.0 
276.25 0.0 
276.333344 0.0 
276.416656 0.0 
276.5 0.0 
276.583344 0.0 
276.666656 0.0 
276.75 0.0 
276.833344 0.0 
276.916656 0.0 
277.0 0.0 
277.083344 0.0 
277.166656 0.0 
277.25 0.0 
277.333344 0.0 
277.416656 0.0 
277.5 0.0 
277.583344 0.0 
277.666656 0.0 
277.75 0.0 
277.833344 0.0 
277.916656 0.0 
278.0 0.0 
278.083344 0.0 
278.166656 0.0 
278.25 0.0 
278.333344 0.0 
278.416656 0.0 
278.5 0.0 
278.583344 0.0 
278.666656 0.0 
278.75 0.0 
278.833344 0.0 
278.916656 0.0 
279.0 0.0 
279.083344 0.0 
279.166656 0.0 
280.166656 372.315948 
280.75 0.0 
280.833344 0.0 
281.0 0.001241 
281.333344 0.0 
281.5 0.0 
281.833344 0.0 
282.083344 0.0 
282.416656 0.0 
282.583344 0.0 
282.916656 0.0 
283.166656 0.0 
283.5 0.0 
283.666656 0.0 
284.0 0.0 
284.25 0.0 
285.083344 45.980061 
285.75 0.0 
285.916656 0.000125 
286.25 0.0 
286.333344 0.0 
286.5 0.0 
286.833344 0.0 
287.0 0.0 
287.333344 0.0 
287.416656 0.0 
287.583344 0.0 
287.916656 0.0 
288.083344 0.0 
288.416656 0.0 
288.666656 0.0 
289.0 0.0 
289.166656 0.0 
289.5 0.0 
289.75 0.0 
290.083344 0.0 
290.25 0.0 
290.5 0.0 
290.583344 0.0 
290.666656 0.0 
290.75 0.0 
290.833344 0.0 
290.916656 0.0 
291.0 0.0 
291.083344 0.0 
291.166656 0.0 
291.25 0.0 
291.333344 0.0 
291.416656 0.0 
291.5 0.0 
291.583344 0.0 
291.666656 0.0 
291.75 0.0 
291.833344 0.0 
291.916656 0.0 
292.0 0.0 
292.083344 0.0 
292.166656 0.0 
292.25 0.0 
292.333344 0.0 
292.416656 0.0 
292.5 0.0 
292.583344 0.0 
292.666656 0.0 
292.75 0.0 
292.833344 0.0 
292.916656 0.0 
293.0 0.0 
293.083344 0.0 
293.166656 0.0 
293.25 0.0 
293.333344 0.0 
293.416656 0.0 
293.5 0.0 
293.583344 0.0 
293.666656 0.0 
293.75 0.0 
293.833344 0.0 
293.916656 0.0 
294.0 0.0 
294.083344 0.0 
294.166656 0.0 
294.25 0.0 
294.333344 0.0 
294.416656 0.0 
294.5 0.0 
294.583344 0.0 
294.666656 0.0 
294.75 0.0 
294.833344 0.0 
294.916656 0.0 
295.0 0.0 
295.083344 0.0 
295.166656 0.0 
295.25 0.0 
295.333344 0.0 
295.416656 0.0 
295.5 0.0 
295.583344 0.0 
295.666656 0.0 
295.75 0.0 
295.833344 0.0 
295.916656 0.0 
296.0 0.0 
296.083344 0.0 
296.166656 0.0 
296.25 0.0 
296.333344 0.0 
296.416656 0.0 
296.5 0.0 
296.583344 0.0 
296.666656 0.0 
296.75 0.0 
296.833344 0.0 
297.083344 3.351885 
297.583344 0.0 
297.833344 0.000141 
298.166656 0.0 
298.333344 0.0 
298.666656 0.0 
298.916656 0.0 
299.25 0.0 
299.416656 0.0 
299.75 0.0 
299.916656 0.0 
300.25 0.0 
300.333344 0.0 
300.5 0.0 
300.833344 0.0 
301.0 0.0 
301.333344 0.0 
301.416656 0.0 
301.583344 0.0 
301.916656 0.0 
302.083344 0.0 
302.333344 0.0 
302.416656 0.0 
302.5 0.0 
302.583344 0.0 
302.666656 0.0 
302.75 0.0 
302.833344 0.0 
302.916656 0.0 
303.166656 0.4677 
303.5 0.0 
303.583344 0.0 
303.75 3e-05 
304.083344 0.0 
304.25 0.0 
304.583344 0.0 
304.666656 0.0 
304.833344 0.0 
305.166656 0.0 
305.333344 0.0 
305.666656 0.0 
305.916656 0.0 
306.25 0.0 
306.416656 0.0 
306.75 0.0 
307.0 0.0 
307.333344 0.0 
307.5 0.0 
307.833344 0.0 
307.916656 0.0 
308.083344 0.0 
308.25 0.0 
308.333344 0.0 
308.416656 0.0 
308.5 0.0 
308.583344 0.0 
308.666656 0.0 
308.75 0.0 
308.833344 0.0 
308.916656 0.0 
309.0 0.0 
309.083344 0.0 
309.166656 0.0 
309.25 0.0 
309.333344 0.0 
309.416656 0.0 
309.5 0.0 
309.583344 0.0 
309.666656 0.0 
309.75 0.0 
309.833344 0.0 
309.916656 0.0 
310.0 0.0 
310.083344 0.0 
310.166656 0.0 
310.25 0.0 
310.333344 0.0 
310.416656 0.0 
310.5 0.0 
310.583344 0.0 
310.666656 0.0 
310.75 0.0 
310.833344 0.0 
310.916656 0.0 
311.0 0.0 
311.083344 0.0 
311.166656 0.0 
311.25 0.0 
311.333344 0.0 
311.416656 0.0 
311.5 0.0 
311.583344 0.0 
311.666656 0.0 
311.75 0.0 
311.833344 0.0 
311.916656 0.0 
312.0 0.0 
312.083344 0.0 
312.166656 0.0 
312.25 0.0 
312.333344 0.0 
312.416656 0.0 
312.5 0.0 
312.583344 0.0 
312.666656 0.0 
312.75 0.0 
313.0 1.553644 
313.333344 0.0 
313.5 9.7e-05 
313.833344 0.0 
313.916656 0.0 
314.083344 0.0 
314.416656 0.0 
314.583344 0.0 
314.916656 0.0 
315.0 0.0 
315.166656 0.0 
315.5 0.0 
315.666656 0.0 
316.0 0.0 
316.25 0.0 
316.583344 0.0 
316.916656 0.544103 
317.25 0.880998 
317.583344 0.0 
317.666656 0.0 
317.833344 5.3e-05 
318.166656 0.0 
318.333344 0.0 
318.666656 0.0 
318.916656 0.0 
319.25 0.0 
319.416656 0.0 
319.75 0.0 
320.0 0.0 
320.333344 0.0 
320.5 0.0 
321.083344 3.605932 
321.416656 0.0 
321.5 0.0 
321.666656 0.0002 
322.0 0.0 
322.166656 0.0 
322.5 0.0 
322.75 0.0 
323.083344 0.0 
323.25 0.0 
323.583344 0.0 
323.833344 0.0 
324.166656 0.0 
324.333344 0.0 
324.666656 0.0 
324.833344 0.0 
325.25 0.0 
325.416656 0.0 
325.75 0.0 
325.916656 0.0 
326.25 0.0 
326.333344 0.0 
326.416656 0.0 
326.5 0.0 
326.583344 0.0 
326.666656 0.0 
326.75 0.0 
326.833344 0.0 
326.916656 0.0 
327.0 0.0 
327.083344 0.0 
327.166656 0.0 
327.25 0.0 
327.333344 0.0 
327.416656 0.0 
327.5 0.0 
327.583344 0.0 
327.666656 0.0 
327.75 0.0 
327.833344 0.0 
327.916656 0.0 
328.0 0.0 
328.083344 0.0 
328.166656 0.0 
328.25 0.0 
328.333344 0.0 
328.416656 0.0 
328.5 0.0 
328.583344 0.0 
328.666656 0.0 
328.75 0.0 
328.833344 0.0 
328.916656 0.0 
329.0 0.0 
329.083344 0.0 
329.166656 0.0 
329.25 0.0 
329.333344 0.0 
329.416656 0.0 
329.5 0.0 
329.583344 0.0 
329.666656 0.0 
329.75 0.0 
329.833344 0.0 
329.916656 0.0 
330.0 0.0 
330.083344 0.0 
330.166656 0.0 
330.25 0.0 
330.333344 0.0 
330.416656 0.0 
331.0 31.240887 
331.666656 0.0 
331.916656 0.000174 
332.25 0.0 
332.416656 0.0 
332.75 0.0 
333.0 0.0 
333.333344 0.0 
333.5 0.0 
334.083344 1.786179 
334.416656 0.0 
334.5 0.0 
334.666656 0.000115 
335.0 0.0 
335.166656 0.0 
335.5 0.0 
335.583344 0.0 
335.75 0.0 
336.083344 0.0 
336.25 0.0 
336.583344 0.0 
336.666656 0.0 
336.833344 0.0 
337.166656 0.0 
337.333344 0.0 
337.666656 0.0 
337.916656 0.0 
338.25 0.0 
338.416656 0.0 
338.75 0.0 
339.0 0.0 
339.25 0.0 
339.333344 0.0 
339.416656 0.0 
339.5 0.0 
339.583344 0.0 
339.666656 0.0 
339.75 0.0 
339.833344 0.0 
339.916656 0.0 
340.0 0.0 
340.083344 0.0 
340.166656 0.0 
340.25 0.0 
340.333344 0.0 
340.416656 0.0 
340.5 0.0 
340.583344 0.0 
340.666656 0.0 
340.75 0.0 
340.833344 0.0 
340.916656 0.0 
341.0 0.0 
341.083344 0.0 
341.166656 0.0 
341.25 0.0 
341.333344 0.0 
341.416656 0.0 
341.5 0.0 
341.583344 0.0 
341.666656 0.0 
341.75 0.0 
341.833344 0.0 
341.916656 0.0 
342.0 0.0 
342.083344 0.0 
342.166656 0.0 
342.25 0.0 
342.333344 0.0 
342.416656 0.0 
342.5 0.0 
342.583344 0.0 
342.666656 0.0 
342.75 0.0 
342.833344 0.0 
342.916656 0.0 
343.0 0.0 
343.083344 0.0 
343.166656 0.0 
343.25 0.0 
343.333344 0.0 
343.416656 0.0 
343.5 0.0 
343.583344 0.0 
343.666656 0.0 
343.75 0.0 
343.833344 0.0 
343.916656 0.0 
344.0 0.0 
344.083344 0.0 
344.166656 0.0 
344.25 0.0 
344.333344 0.0 
344.416656 0.0 
344.5 0.0 
344.583344 0.0 
344.666656 0.0 
344.75 0.0 
344.833344 0.0 
344.916656 0.0 
345.0 0.0 
345.083344 0.0 
345.166656 0.0 
345.25 0.0 
345.333344 0.0 
345.416656 0.0 
345.5 0.0 
345.583344 0.0 
345.666656 0.0 
345.75 0.0 
345.833344 0.0 
345.916656 0.0 
346.0 0.0 
346.083344 0.0 
346.166656 0.0 
346.25 0.0 
346.333344 0.0 
346.416656 0.0 
346.5 0.0 
346.583344 0.0 
346.666656 0.0 
346.916656 2.010159 
347.25 1.715632 
347.583344 0.0 
347.833344 9.7e-05 
348.25 1.12675 
348.833344 11.118028 
349.166656 24.539392 
349.666656 0.0 
349.75 0.0 
349.916656 0.000658 
350.25 0.0 
350.416656 0.0 
350.75 0.0 
350.833344 0.0 
351.0 0.0 
351.333344 0.0 
351.5 0.0 
351.833344 0.0 
352.083344 0.0 
352.416656 0.0 
352.75 0.838691 
353.166656 16.332085 
353.833344 0.0 
354.083344 9.9e-05 
354.416656 0.0 
354.583344 0.0 
354.916656 0.0 
355.166656 0.0 
355.5 0.0 
355.666656 0.0 
356.0 0.0 
356.166656 0.0 
356.5 0.0 
356.583344 0.0 
356.75 0.0 
357.083344 0.0 
357.25 0.0 
357.583344 0.0 
357.666656 0.0 
357.833344 0.0 
358.166656 0.0 
358.333344 0.0 
358.583344 0.0 
358.666656 0.0 
358.75 0.0 
358.833344 0.0 
358.916656 0.0 
359.0 0.0 
359.083344 0.0 
359.166656 0.0 
359.25 0.0 
359.333344 0.0 
359.416656 0.0 
359.5 0.0 
359.583344 0.0 
359.666656 0.0 
359.75 0.0 
359.833344 0.0 
359.916656 0.0 
360.0 0.0 
360.083344 0.0 
360.166656 0.0 
360.25 0.0 
360.333344 0.0 
360.416656 0.0 
360.5 0.0 
360.583344 0.0 
360.666656 0.0 
360.75 0.0 
360.833344 0.0 
360.916656 0.0 
361.0 0.0 
361.25 1.421709 
361.583344 0.0 
361.666656 0.0 
361.833344 0.000103 
362.166656 0.0 
362.333344 0.0 
362.666656 0.0 
362.916656 0.0 
363.25 0.0 
363.416656 0.0 
363.75 0.0 
364.0 0.0 
364.333344 0.0 
364.5 0.0 
364.833344 1.670163 
365.25 2.449599 
365.666656 0.0 
365.833344 7e-05 
366.166656 0.0 
366.25 0.0 
366.416656 0.0 
366.75 0.0 
366.916656 0.0 
367.25 0.0 
367.333344 0.0 
367.5 0.0 
367.833344 0.0 
368.0 0.0 
368.333344 0.0 
368.416656 0.0 
368.583344 0.0 
368.916656 0.0 
369.083344 0.0 
369.416656 0.0 
369.666656 0.0 
370.0 0.0 
370.166656 0.0 
370.416656 0.0 
370.5 0.0 
370.583344 0.0 
370.666656 0.0 
370.75 0.0 
370.833344 0.0 
370.916656 0.0 
371.0 0.0 
371.083344 0.0 
371.166656 0.0 
371.25 0.0 
371.333344 0.0 
371.416656 0.0 
371.5 0.0 
371.583344 0.0 
371.666656 0.0 
371.75 0.0 
371.833344 0.0 
371.916656 0.0 
372.0 0.0 
372.083344 0.0 
372.166656 0.0 
372.25 0.0 
372.333344 0.0 
372.416656 0.0 
372.5 0.0 
372.583344 0.0 
372.666656 0.0 
372.75 0.0 
372.833344 0.0 
372.916656 0.0 
373.0 0.0 
373.083344 0.0 
373.166656 0.0 
373.25 0.0 
373.333344 0.0 
373.416656 0.0 
373.5 0.0 
373.583344 0.0 
373.666656 0.0 
373.75 0.0 
373.833344 0.0 
373.916656 0.0 
374.0 0.0 
374.083344 0.0 
374.166656 0.0 
374.25 0.0 
374.333344 0.0 
374.416656 0.0 
374.5 0.0 
375.166656 27.554323 
375.833344 0.0 
376.0 0.000148 
376.333344 0.0 
376.416656 0.0 
376.583344 0.0 
376.916656 0.0 
377.083344 0.0 
377.416656 0.0 
377.5 0.0 
377.666656 0.0 
378.0 0.0 
378.166656 0.0 
378.583344 1.514703 
379.25 45.236343 
379.916656 0.0 
380.083344 0.000373 
380.416656 0.0 
380.666656 0.0 
381.0 0.0 
381.166656 0.0 
381.5 0.0 
381.666656 0.0 
382.083344 0.0 
382.25 0.0 
382.583344 2.357454 
382.916656 2.897547 
383.25 0.763294 
383.583344 0.0 
383.75 5.4e-05 
384.083344 0.0 
384.166656 0.0 
384.333344 0.0 
384.666656 0.0 
384.833344 0.0 
385.166656 0.0 
385.416656 0.0 
385.75 0.0 
385.916656 0.0 
386.25 0.0 
386.5 0.0 
386.833344 0.0 
387.0 0.0 
387.333344 0.0 
387.583344 0.0 
387.916656 0.0 
388.083344 0.0 
388.333344 0.0 
388.416656 0.0 
388.5 0.0 
388.583344 0.0 
388.666656 0.0 
388.75 0.0 
388.833344 0.0 
388.916656 0.0 
389.0 0.0 
389.083344 0.0 
389.166656 0.0 
389.25 0.0 
389.333344 0.0 
389.416656 0.0 
389.5 0.0 
389.583344 0.0 
389.666656 0.0 
389.75 0.0 
389.833344 0.0 
389.916656 0.0 
390.0 0.0 
390.083344 0.0 
390.166656 0.0 
390.25 0.0 
390.333344 0.0 
390.416656 0.0 
390.5 0.0 
390.583344 0.0 
390.666656 0.0 
390.75 0.0 
390.833344 0.0 
390.916656 0.0 
391.0 0.0 
391.083344 0.0 
391.166656 0.0 
391.5 6.671881 
392.083344 90.432953 
392.833344 0.0 
393.083344 0.000306 
393.416656 0.0 
393.583344 0.0 
393.916656 0.0 
394.166656 0.0 
394.5 0.0 
394.666656 0.0 
395.0 0.0 
395.75 6.195129 
396.166656 36.960728 
396.75 0.0 
397.0 0.001183 
397.5 1.479655 
397.916656 0.0 
398.083344 0.000121 
398.416656 0.0 
398.5 0.0 
398.833344 7.050585 
399.25 19.201288 
399.75 0.0 
399.833344 0.0 
400.0 0.000532 
400.333344 0.0 
400.5 0.0 
400.833344 0.0 
400.916656 0.0 
401.083344 0.0 
401.416656 0.0 
401.583344 0.0 
401.916656 0.0 
402.166656 0.0 
402.5 0.0 
402.666656 0.0 
403.0 1.194373 
403.5 0.0 
403.666656 7.3e-05 
404.0 0.0 
404.25 0.0 
404.583344 0.0 
404.75 0.0 
405.083344 0.0 
405.333344 0.0 
405.666687 0.0 
405.833344 0.0 
406.333344 3.221611 
406.75 0.0 
406.916687 0.000194 
407.25 0.0 
407.333344 0.0 
407.5 0.0 
407.833344 0.0 
408.0 0.0 
408.333344 0.0 
408.583344 0.0 
408.916687 0.0 
409.083344 0.0 
409.416687 0.0 
409.666687 0.0 
410.166687 1.988112 
410.5 0.0 
410.666687 0.000113 
411.0 0.0 
411.083344 0.0 
411.25 0.0 
411.583344 0.0 
411.75 0.0 
412.083344 0.0 
412.166687 0.0 
412.333344 0.0 
412.666687 0.0 
412.833344 0.0 
413.166687 0.0 
413.25 0.0 
413.416687 0.0 
413.75 0.0 
413.916687 0.0 
414.25 0.0 
414.5 0.0 
414.833344 0.0 
415.0 0.0 
415.25 0.0 
415.5 0.48452 
415.833344 0.0 
416.083344 2.6e-05 
416.416687 0.0 
416.5 0.0 
416.75 0.618996 
417.166687 4.282006 
417.583344 0.0 
417.75 0.00024 
418.083344 0.0 
418.333344 0.0 
418.666687 0.0 
418.833344 0.0 
419.166687 0.0 
419.416687 0.0 
419.75 0.0 
419.916687 0.0 
420.25 0.0 
420.5 0.0 
420.833344 0.0 
421.0 0.0 
421.333344 0.0 
421.5 0.0 
421.833344 0.0 
421.916687 0.0 
422.083344 0.0 
422.333344 0.0 
422.416687 0.0 
422.5 0.0 
422.583344 0.0 
422.666687 0.0 
422.75 0.0 
422.833344 0.0 
424.166687 1682.330444 
424.916687 0.0 
425.0 0.0 
425.166687 0.004273 
425.5 0.0 
425.666687 0.0 
426.0 0.0 
426.083344 0.0 
426.25 0.0 
426.583344 0.0 
426.75 0.0 
427.083344 0.0 
427.333344 0.0 
427.666687 0.0 
427.833344 0.0 
428.166687 0.0 
428.416687 0.0 
428.75 0.0 
428.916687 0.0 
429.333344 2.647456 
429.75 0.0 
429.916687 0.000195 
430.25 0.0 
430.5 0.0 
430.833344 0.0 
431.0 0.0 
431.333344 0.0 
431.583344 0.0 
432.083344 0.230307 
432.333344 0.0 
432.416687 0.0 
432.583344 2.4e-05 
432.916687 0.0 
433.083344 0.0 
433.416687 0.0 
433.5 0.0 
433.666687 0.0 
434.0 0.0 
434.166687 0.0 
434.5 0.0 
434.583344 0.0 
434.75 0.0 
435.083344 0.0 
435.25 0.0 
435.583344 0.0 
435.833344 0.0 
436.166687 0.0 
436.333344 0.0 
436.666687 0.0 
436.75 0.0 
436.833344 0.0 
436.916687 0.0 
437.0 0.0 
437.083344 0.0 
437.166687 0.0 
437.25 0.0 
437.333344 0.0 
437.416687 0.0 
437.5 0.0 
437.583344 0.0 
437.666687 0.0 
437.75 0.0 
437.833344 0.0 
437.916687 0.0 
438.0 0.0 
438.083344 0.0 
438.166687 0.0 
438.25 0.0 
438.333344 0.0 
438.416687 0.0 
438.5 0.0 
438.583344 0.0 
438.666687 0.0 
438.75 0.0 
438.833344 0.0 
438.916687 0.0 
439.0 0.0 
439.083344 0.0 
439.166687 0.0 
439.25 0.0 
439.333344 0.0 
439.416687 0.0 
439.5 0.0 
439.583344 0.0 
439.666687 0.0 
439.75 0.0 
439.833344 0.0 
439.916687 0.0 
440.0 0.0 
440.083344 0.0 
440.166687 0.0 
440.25 0.0 
440.333344 0.0 
440.416687 0.0 
440.5 0.0 
440.583344 0.0 
440.666687 0.0 
440.75 0.0 
440.833344 0.0 
440.916687 0.0 
441.0 0.0 
441.083344 0.0 
441.166687 0.0 
441.25 0.0 
441.333344 0.0 
441.416687 0.0 
441.5 0.0 
441.583344 0.0 
441.666687 0.0 
441.75 0.0 
441.833344 0.0 
441.916687 0.0 
442.0 0.0 
442.083344 0.0 
442.166687 0.0 
442.25 0.0 
442.333344 0.0 
442.416687 0.0 
442.5 0.0 
442.583344 0.0 
442.666687 0.0 
442.75 0.0 
442.833344 0.0 
442.916687 0.0 
443.0 0.0 
443.083344 0.0 
443.166687 0.0 
443.25 0.0 
443.333344 0.0 
443.416687 0.0 
443.5 0.0 
443.583344 0.0 
443.666687 0.0 
443.75 0.0 
443.833344 0.0 
443.916687 0.0 
444.0 0.0 
444.083344 0.0 
444.166687 0.0 
444.25 0.0 
444.333344 0.0 
444.583344 1.723617 
445.166687 9.897934 
445.833344 0.0 
446.083344 0.000121 
446.416687 0.0 
446.583344 0.0 
446.916687 0.0 
447.166687 0.0 
447.5 0.0 
447.666687 0.0 
448.0 0.0 
448.25 0.0 
448.583344 0.0 
448.75 0.0 
449.083344 0.0 
449.25 0.0 
449.583344 0.0 
449.666687 0.0 
449.833344 0.0 
450.166687 0.628146 
450.5 0.0 
450.75 3.3e-05 
451.083344 0.0 
451.25 0.0 
451.583344 0.0 
451.75 0.0 
452.083344 0.0 
452.166687 0.0 
452.333344 0.0 
452.666687 0.0 
452.833344 0.0 
453.166687 0.0 
453.25 0.0 
453.416687 0.0 
453.75 0.0 
453.916687 0.0 
454.25 0.0 
454.333344 0.0 
454.5 0.0 
454.833344 0.0 
455.0 0.0 
455.25 0.0 
455.333344 0.0 
455.416687 0.0 
455.5 0.0 
455.583344 0.0 
455.666687 0.0 
455.75 0.0 
455.833344 0.0 
455.916687 0.0 
456.0 0.0 
456.083344 0.0 
456.166687 0.0 
456.25 0.0 
456.333344 0.0 
456.416687 0.0 
456.5 0.0 
456.583344 0.0 
456.666687 0.0 
456.75 0.0 
456.833344 0.0 
456.916687 0.0 
457.0 0.0 
457.083344 0.0 
457.166687 0.0 
457.25 0.0 
457.333344 0.0 
457.416687 0.0 
457.5 0.0 
457.583344 0.0 
457.666687 0.0 
457.75 0.0 
457.833344 0.0 
457.916687 0.0 
458.0 0.0 
458.083344 0.0 
458.166687 0.0 
458.25 0.0 
458.333344 0.0 
458.416687 0.0 
458.5 0.0 
458.583344 0.0 
458.666687 0.0 
458.75 0.0 
458.833344 0.0 
458.916687 0.0 
459.0 0.0 
459.083344 0.0 
459.166687 0.0 
459.25 0.0 
459.333344 0.0 
459.416687 0.0 
459.5 0.0 
459.583344 0.0 
459.666687 0.0 
459.75 0.0 
459.833344 0.0 
459.916687 0.0 
460.0 0.0 
460.083344 0.0 
460.166687 0.0 
460.25 0.0 
460.333344 0.0 
460.416687 0.0 
460.5 0.0 
460.583344 0.0 
460.666687 0.0 
460.75 0.0 
460.833344 0.0 
460.916687 0.0 
461.0 0.0 
461.083344 0.0 
461.166687 0.0 
461.25 0.0 
461.333344 0.0 
461.416687 0.0 
461.5 0.0 
461.583344 0.0 
461.666687 0.0 
461.75 0.0 
461.833344 0.0 
461.916687 0.0 
462.0 0.0 
462.083344 0.0 
462.166687 0.0 
462.25 0.0 
462.333344 0.0 
462.416687 0.0 
462.5 0.0 
462.583344 0.0 
462.666687 0.0 
462.75 0.0 
462.833344 0.0 
462.916687 0.0 
463.0 0.0 
463.083344 0.0 
463.166687 0.0 
463.25 0.0 
463.333344 0.0 
463.416687 0.0 
463.5 0.0 
463.583344 0.0 
463.666687 0.0 
463.75 0.0 
463.833344 0.0 
463.916687 0.0 
464.0 0.0 
464.083344 0.0 
464.166687 0.0 
464.25 0.0 
464.333344 0.0 
464.416687 0.0 
464.5 0.0 
464.583344 0.0 
464.666687 0.0 
464.75 0.0 
464.833344 0.0 
464.916687 0.0 
465.0 0.0 
465.083344 0.0 
465.166687 0.0 
465.25 0.0 
465.333344 0.0 
465.416687 0.0 
465.5 0.0 
465.583344 0.0 
465.666687 0.0 
465.75 0.0 
465.833344 0.0 
465.916687 0.0 
466.0 0.0 
466.083344 0.0 
466.166687 0.0 
466.25 0.0 
466.333344 0.0 
466.583344 0.469054 
466.916687 0.0 
467.166687 1.20493 
468.166687 260.822845 
469.083344 0.0 
469.25 0.000128 
469.666687 0.0 
469.833344 0.0 
470.166687 0.0 
470.333344 0.0 
470.666687 0.0 
470.75 0.0 
470.916687 0.0 
471.25 0.0 
471.416687 0.0 
471.75 0.0 
471.833344 0.0 
472.0 0.0 
472.333344 0.0 
472.5 0.0 
472.833344 0.0 
473.083344 0.0 
473.416687 0.0 
473.583344 0.0 
473.833344 0.0 
473.916687 0.0 
474.0 0.0 
474.083344 0.0 
474.166687 0.0 
474.416687 1.390505 
474.916687 0.0 
475.083344 6.5e-05 
475.416687 0.0 
475.666687 0.0 
476.0 0.0 
476.166687 0.0 
476.5 0.0 
476.75 0.0 
477.083344 0.0 
477.25 0.0 
477.583344 0.0 
477.75 0.0 
478.166687 0.0 
478.333344 0.0 
478.666687 0.0 
478.833344 0.0 
479.166687 0.0 
479.25 0.0 
479.416687 0.0 
479.583344 0.0 
479.666687 0.0 
479.75 0.0 
479.833344 0.0 
479.916687 0.0 
480.0 0.0 
480.25 0.424248 
480.583344 0.0 
480.666687 0.0 
480.833344 4.2e-05 
481.083344 0.526684 
481.416687 0.521326 
481.75 0.0 
481.916687 4.7e-05 
482.25 0.0 
482.5 0.0 
482.833344 0.0 
483.0 0.0 
483.333344 0.0 
483.5 0.0 
483.916687 0.0 
484.083344 0.0 
484.416687 0.0 
484.583344 0.0 
484.916687 0.0 
485.0 0.0 
485.166687 0.0 
485.5 0.0 
485.666687 0.0 
486.0 0.0 
486.083344 0.0 
486.25 0.0 
486.416687 0.0 
486.5 0.0 
486.583344 0.0 
486.666687 0.0 
486.75 0.0 
486.833344 0.0 
486.916687 0.0 
487.0 0.0 
487.083344 0.0 
487.166687 0.0 
487.25 0.0 
487.333344 0.0 
487.416687 0.0 
487.5 0.0 
487.583344 0.0 
487.666687 0.0 
487.75 0.0 
487.833344 0.0 
487.916687 0.0 
488.0 0.0 
488.083344 0.0 
488.166687 0.0 
488.25 0.0 
488.333344 0.0 
488.416687 0.0 
488.5 0.0 
488.583344 0.0 
488.666687 0.0 
488.75 0.0 
488.833344 0.0 
488.916687 0.0 
489.0 0.0 
489.083344 0.0 
489.166687 0.0 
489.25 0.0 
489.333344 0.0 
489.416687 0.0 
489.5 0.0 
489.583344 0.0 
489.666687 0.0 
489.75 0.0 
489.833344 0.0 
489.916687 0.0 
490.0 0.0 
490.083344 0.0 
490.166687 0.0 
490.25 0.0 
490.333344 0.0 
490.416687 0.0 
490.5 0.0 
490.583344 0.0 
490.666687 0.0 
490.75 0.0 
490.833344 0.0 
490.916687 0.0 
491.166687 2.503047 
491.5 0.0 
491.75 0.00013 
492.083344 0.0 
492.25 0.0 
492.583344 0.0 
492.833344 0.0 
493.083344 0.577407 
493.333344 3.699956 
493.666687 0.0 
494.083344 5.511671 
494.333344 8.699903 
494.75 0.0 
494.833344 0.0 
495.0 0.00034 
495.333344 0.0 
495.5 0.0 
495.833344 0.0 
495.916687 0.0 
496.083344 0.0 
496.416687 0.0 
496.583344 0.0 
496.916687 0.0 
497.166687 0.0 
497.5 0.0 
497.666687 0.0 
498.0 1.938909 
498.25 2.418157 
498.583344 0.0 
498.833344 0.000134 
499.166687 0.0 
499.333344 0.0 
499.666687 0.0 
499.916687 0.0 
500.25 0.0 
500.416687 0.0 
500.75 0.0 
501.0 0.0 
501.333344 0.0 
501.5 0.0 
501.833344 0.0 
502.0 0.0 
502.333344 0.0 
502.416687 0.0 
502.583344 0.0 
502.916687 0.0 
503.083344 0.0 
503.333344 0.0 
503.416687 0.0 
503.5 0.0 
503.583344 0.0 
503.666687 0.0 
503.75 0.0 
503.833344 0.0 
503.916687 0.0 
504.0 0.0 
504.083344 0.0 
504.166687 0.0 
504.25 0.0 
504.333344 0.0 
504.416687 0.0 
504.5 0.0 
504.583344 0.0 
504.666687 0.0 
504.75 0.0 
504.833344 0.0 
504.916687 0.0 
505.0 0.0 
505.083344 0.0 
505.166687 0.0 
505.25 0.0 
505.333344 0.0 
505.416687 0.0 
505.5 0.0 
505.583344 0.0 
505.666687 0.0 
505.75 0.0 
505.833344 0.0 
505.916687 0.0 
506.0 0.0 
506.083344 0.0 
506.166687 0.0 
506.25 0.0 
506.333344 0.0 
506.416687 0.0 
506.5 0.0 
506.583344 0.0 
506.666687 0.0 
506.75 0.0 
506.833344 0.0 
506.916687 0.0 
507.0 0.0 
507.083344 0.0 
507.166687 0.0 
507.416687 1.549696 
507.75 0.0 
508.0 0.986315 
508.416687 0.0 
508.583344 8.1e-05 
508.916687 0.0 
509.166687 0.0 
509.5 0.0 
509.666687 0.0 
510.0 0.0 
510.166687 0.0 
510.5 0.0 
510.583344 0.0 
511.0 3.316281 
511.333344 3.559844 
511.833344 0.0 
512.0 5.7e-05 
512.333313 0.0 
512.416687 0.0 
512.583313 0.0 
512.916687 0.0 
513.083313 0.0 
513.416687 0.0 
513.5 0.0 
513.666687 0.0 
514.0 0.0 
514.166687 0.0 
514.416687 0.874622 
515.333313 2.521767 
515.666687 0.0 
515.833313 0.000208 
516.166687 0.0 
516.416687 0.0 
516.75 0.0 
516.916687 0.0 
517.25 0.0 
517.5 0.0 
517.833313 0.0 
518.0 0.0 
518.333313 0.0 
518.5 0.0 
518.916687 0.0 
519.083313 0.0 
519.416687 0.0 
519.583313 0.0 
519.916687 0.0 
520.0 0.0 
520.166687 0.0 
520.416687 0.0 
520.5 0.0 
520.583313 0.0 
520.666687 0.0 
520.75 0.0 
520.833313 0.0 
520.916687 0.0 
521.0 0.0 
521.083313 0.0 
521.166687 0.0 
521.25 0.0 
521.333313 0.0 
521.416687 0.0 
521.5 0.0 
521.583313 0.0 
521.666687 0.0 
521.75 0.0 
521.833313 0.0 
521.916687 0.0 
522.0 0.0 
522.083313 0.0 
522.166687 0.0 
522.25 0.0 
522.333313 0.0 
522.416687 0.0 
522.5 0.0 
522.583313 0.0 
522.666687 0.0 
522.75 0.0 
522.833313 0.0 
522.916687 0.0 
523.0 0.0 
523.083313 0.0 
523.166687 0.0 
523.25 0.0 
523.333313 0.0 
523.416687 0.0 
523.5 0.0 
523.583313 0.0 
523.666687 0.0 
523.75 0.0 
523.833313 0.0 
523.916687 0.0 
524.0 0.0 
524.083313 0.0 
524.166687 0.0 
524.25 0.0 
524.333313 0.0 
524.416687 0.0 
524.5 0.0 
524.583313 0.0 
524.666687 0.0 
524.75 0.0 
524.833313 0.0 
524.916687 0.0 
525.0 0.0 
525.083313 0.0 
525.166687 0.0 
525.25 0.0 
525.333313 0.0 
525.416687 0.0 
525.5 0.0 
525.583313 0.0 
525.666687 0.0 
525.75 0.0 
525.833313 0.0 
525.916687 0.0 
526.0 0.0 
526.083313 0.0 
526.166687 0.0 
526.25 0.0 
526.333313 0.0 
526.416687 0.0 
526.5 0.0 
526.583313 0.0 
526.666687 0.0 
526.75 0.0 
526.833313 0.0 
526.916687 0.0 
527.0 0.0 
527.083313 0.0 
527.166687 0.0 
527.25 0.0 
527.333313 0.0 
527.416687 0.0 
527.5 0.0 
527.583313 0.0 
527.666687 0.0 
527.75 0.0 
527.833313 0.0 
527.916687 0.0 
528.0 0.0 
528.083313 0.0 
528.166687 0.0 
528.25 0.0 
528.333313 0.0 
528.416687 0.0 
528.5 0.0 
528.583313 0.0 
528.666687 0.0 
528.75 0.0 
528.833313 0.0 
528.916687 0.0 
529.0 0.0 
529.083313 0.0 
529.166687 0.0 
529.25 0.0 
529.333313 0.0 
529.416687 0.0 
529.5 0.0 
529.583313 0.0 
529.666687 0.0 
529.75 0.0 
530.0 1.842958 
530.416687 0.0 
530.583313 0.000146 
531.0 2.582935 
531.5 0.0 
531.666687 4.7e-05 
532.0 0.0 
532.083313 0.0 
532.25 0.0 
532.583313 0.0 
532.75 0.0 
533.0 0.629627 
533.333313 0.0 
533.416687 0.0 
533.583313 4.7e-05 
533.916687 0.0 
534.083313 0.0 
534.416687 0.0 
534.5 0.0 
534.666687 0.0 
535.0 0.0 
535.166687 0.0 
535.5 0.0 
535.583313 0.0 
535.75 0.0 
536.083313 0.0 
536.25 0.0 
536.583313 0.0 
536.833313 0.0 
537.166687 0.0 
537.333313 0.0 
537.666687 0.0 
537.75 0.0 
537.916687 0.0 
538.083313 0.0 
538.166687 0.0 
538.25 0.0 
538.333313 0.0 
538.416687 0.0 
538.5 0.0 
538.583313 0.0 
538.666687 0.0 
538.75 0.0 
538.833313 0.0 
538.916687 0.0 
539.0 0.0 
539.083313 0.0 
539.333313 3.006492 
539.666687 0.0 
539.833313 0.000166 
540.333313 0.864349 
540.75 0.0 
540.916687 7e-05 
541.25 0.0 
541.416687 0.0 
541.75 0.0 
541.833313 0.0 
542.0 0.0 
543.166687 226.485321 
543.833313 0.0 
543.916687 0.0 
544.083313 0.003004 
544.416687 0.0 
544.583313 0.0 
544.916687 0.0 
545.0 0.0 
545.166687 0.0 
545.5 0.0 
545.666687 0.0 
546.0 0.0 
546.25 0.0 
546.583313 0.0 
546.75 0.0 
547.083313 0.0 
547.333313 0.0 
547.666687 0.0 
548.083313 5.019424 
548.416687 0.0 
548.666687 0.000261 
549.0 0.0 
549.166687 0.0 
549.5 0.0 
549.75 0.0 
550.083313 0.0 
550.25 0.0 
550.583313 0.0 
550.75 0.0 
551.083313 0.0 
551.166687 0.0 
551.333313 0.0 
551.666687 0.0 
551.833313 0.0 
552.166687 0.0 
552.25 0.0 
552.416687 0.0 
552.75 0.0 
552.916687 0.0 
553.25 0.0 
553.333313 0.0 
553.416687 0.0 
553.5 0.0 
553.583313 0.0 
553.666687 0.0 
553.75 0.0 
553.833313 0.0 
553.916687 0.0 
554.0 0.0 
554.083313 0.0 
554.166687 0.0 
554.25 0.0 
554.333313 0.0 
554.416687 0.0 
554.5 0.0 
554.583313 0.0 
554.666687 0.0 
554.75 0.0 
554.833313 0.0 
554.916687 0.0 
555.0 0.0 
555.083313 0.0 
555.166687 0.0 
555.416687 1.004534 
555.75 0.0 
555.833313 0.0 
556.0 7.5e-05 
556.333313 0.0 
556.5 0.0 
557.25 3.482928 
557.583313 0.0 
557.666687 0.0 
557.833313 0.000194 
558.166687 0.0 
558.333313 0.0 
558.666687 0.0 
558.75 0.0 
558.916687 0.0 
559.25 0.0 
559.416687 0.0 
559.75 0.0 
560.0 0.0 
560.333313 0.0 
560.416687 0.0 
560.666687 2.280714 
561.083313 1.97334 
561.333313 4.306932 
561.75 0.0 
561.916687 0.000275 
562.25 0.0 
562.416687 0.0 
562.75 0.0 
562.833313 0.0 
563.0 0.0 
563.333313 0.0 
563.5 0.0 
563.916687 1.392217 
564.25 4.390131 
564.583313 1.594802 
564.916687 0.0 
565.0 0.0 
565.166687 0.000108 
565.5 0.0 
565.666687 0.0 
566.0 0.0 
566.333313 3.949114 
567.0 0.957281 
567.416687 2.202816 
567.75 0.0 
567.916687 2.1e-05 
568.166687 2.020541 
568.5 0.0 
568.666687 0.000161 
569.0 0.0 
569.333313 0.841665 
569.666687 0.0 
569.75 0.0 
569.916687 6.3e-05 
570.25 0.0 
570.416687 0.0 
571.083313 2.31149 
571.25 3.607681 
571.666687 0.0 
571.833313 0.000258 
572.166687 0.0 
572.416687 0.0 
572.75 0.0 
572.916687 0.0 
573.25 0.0 
573.5 0.0 
573.833313 0.0 
574.0 0.0 
574.333313 0.0 
574.5 0.0 
574.833313 0.0 
574.916687 0.0 
575.083313 0.0 
575.416687 0.0 
575.583313 0.0 
575.916687 0.0 
576.0 0.0 
576.166687 0.0 
576.416687 0.0 
576.5 0.0 
576.583374 0.0 
576.666687 0.0 
576.75 0.0 
576.833374 0.0 
576.916687 0.0 
577.0 0.0 
577.083374 0.0 
577.166687 0.0 
577.416687 0.88664 
577.75 0.0 
577.833374 0.0 
578.0 6.2e-05 
578.333374 0.0 
578.5 0.0 
578.833374 0.0 
578.916687 0.0 
579.083374 0.0 
579.416687 0.0 
579.583374 0.0 
579.916687 0.0 
580.166687 0.0 
580.5 0.0 
580.666687 0.0 
581.0 0.0 
581.25 1.189707 
581.583374 0.0 
581.75 0.000104 
582.25 2.250153 
582.416687 2.389042 
583.166687 5.660276 
583.5 0.0 
583.75 0.000301 
584.083374 0.0 
584.25 0.0 
584.583374 0.0 
584.833374 0.0 
585.083374 2.051809 
585.5 0.0 
585.666687 0.000134 
586.0 0.0 
586.25 0.560939 
586.583374 0.0 
586.75 3.3e-05 
587.25 4.56137 
587.666687 0.0 
587.916687 0.000179 
588.25 0.0 
588.416687 0.0 
589.25 10.691663 
589.75 0.0 
589.833374 0.0 
590.083374 0.508132 
590.333374 1.724708 
590.5 4.018987 
590.916687 0.0 
591.083374 0.000345 
591.5 2.362393 
591.833374 1.508927 
592.083374 1.69927 
592.416687 2.581805 
592.583374 1.746286 
592.833374 3.409956 
593.25 11.280909 
593.833374 1.893687 
594.333374 10.251154 
594.833374 0.0 
595.0 0.000144 
595.333374 0.0 
595.583374 0.0 
595.916687 0.0 
596.083374 0.0 
596.333374 2.173974 
596.75 0.0 
596.833374 0.0 
597.0 0.000116 
597.333374 0.0 
597.583374 2.131854 
597.916687 0.0 
598.083374 0.000201 
598.416687 0.0 
598.666687 0.0 
599.0 0.0 
599.166687 0.0 
599.5 0.0 
599.666687 0.0 
600.0 0.0 
600.083374 0.0 
600.25 0.0 
600.583374 0.0 
600.75 0.0 
601.25 1.398606 
601.583374 0.0 
601.75 0.000132 
602.25 1.629583 
602.666687 0.0 
602.833374 0.000124 
603.166687 0.0 
603.416687 0.0 
603.75 0.0 
604.0 1.047576 
604.333374 0.0 
604.583374 5.5e-05 
604.916687 0.0 
605.083374 0.0 
605.416687 0.0 
605.583374 0.0 
605.916687 0.0 
606.0 0.0 
606.166687 0.0 
606.5 0.0 
606.666687 0.0 
607.0 0.0 
607.083374 0.0 
607.25 0.0 
607.583374 0.0 
607.75 0.0 
608.083374 0.0 
608.166687 0.0 
608.333374 0.0 
608.666687 0.0 
609.083374 1.490733 
609.416687 1.378844 
609.75 0.0 
609.833374 0.0 
610.083374 0.684229 
610.25 1.288935 
610.583374 0.0 
610.666687 0.0 
610.833374 8e-05 
611.166687 0.0 
611.333374 0.0 
611.666687 0.0 
611.75 0.0 
611.916687 0.0 
612.25 0.0 
612.416687 0.0 
612.75 0.0 
613.0 0.0 
613.333374 0.0 
613.5 0.0 
613.833374 0.0 
614.083374 0.0 
614.416687 0.0 
614.583374 0.0 
614.916687 0.0 
615.083374 0.0 
615.333374 1.309579 
615.666687 0.0 
616.0 1.063402 
616.416687 0.0 
616.583374 9.2e-05 
616.916687 0.0 
617.083374 0.0 
617.416687 0.0 
617.5 0.0 
617.666687 0.0 
618.0 0.0 
618.166687 0.0 
618.5 0.0 
618.583374 0.0 
618.75 0.0 
619.083374 0.0 
619.25 0.0 
619.583374 0.0 
619.666687 0.0 
619.833374 0.0 
620.166687 0.0 
620.333374 0.0 
620.666687 0.0 
620.75 0.0 
621.083374 1.522384 
621.416687 0.0 
621.5 0.0 
621.666687 9.1e-05 
622.0 0.0 
622.166687 0.0 
622.5 0.0 
622.583374 0.0 
622.75 0.0 
623.083374 0.0 
623.25 0.0 
623.583374 0.0 
623.833374 0.0 
624.166687 0.0 
624.333374 0.0 
624.666687 0.0 
624.916687 0.0 
625.416687 3.068708 
625.833374 0.0 
626.083374 0.000117 
626.416687 0.0 
626.583374 0.0 
626.916687 0.0 
627.166687 0.0 
627.583374 1.485776 
627.916687 1.887737 
628.5 0.0 
628.666687 4.1e-05 
629.0 1.961814 
629.333374 0.0 
629.583374 9.8e-05 
629.916687 0.0 
630.083374 0.0 
630.416687 0.0 
630.666687 0.0 
631.0 0.0 
631.166687 0.0 
631.5 0.0 
631.75 0.0 
632.083374 0.0 
632.25 0.0 
632.583374 0.0 
632.75 0.0 
633.083374 2.347872 
633.416687 0.0 
633.666687 0.00014 
634.0 0.0 
634.166687 0.0 
634.5 0.0 
634.75 0.0 
635.083374 0.0 
635.25 0.0 
635.583374 0.0 
635.833374 0.0 
636.333374 0.517351 
636.75 2.11488 
637.166687 0.0 
637.333374 0.000181 
637.666687 0.0 
637.833374 0.0 
638.166687 0.0 
638.25 0.0 
638.416687 0.0 
638.75 0.0 
638.916687 0.0 
639.25 0.0 
639.333374 0.0 
639.5 0.0 
639.833374 0.0 
640.0 0.0 
640.333374 0.0 
640.416687 0.0 
640.583374 0.0 
640.916687 0.0 
641.083374 0.0 
641.416687 0.0 
641.666687 0.0 
641.916687 0.0 
642.0 0.0 
642.083374 0.0 
642.166687 0.0 
642.25 0.0 
642.333374 0.0 
642.416687 0.0 
642.5 0.0 
642.583374 0.0 
642.666687 0.0 
642.75 0.0 
642.833374 0.0 
642.916687 0.0 
643.0 0.0 
643.083374 0.0 
643.166687 0.0 
643.25 0.0 
643.333374 0.0 
643.416687 0.0 
643.5 0.0 
643.583374 0.0 
643.666687 0.0 
643.75 0.0 
643.833374 0.0 
643.916687 0.0 
644.0 0.0 
644.083374 0.0 
644.166687 0.0 
644.25 0.0 
644.333374 0.0 
644.416687 0.0 
644.5 0.0 
644.583374 0.0 
644.666687 0.0 
644.75 0.0 
644.833374 0.0 
644.916687 0.0 
645.166687 0.815425 
645.5 0.0 
645.583374 0.0 
645.833374 0.612184 
646.0 0.790174 
646.333374 2.534639 
646.666687 2.998875 
647.25 24.94726 
648.083374 0.0 
648.25 0.000105 
648.583374 0.0 
648.666687 0.0 
648.833374 0.0 
649.166687 0.0 
649.333374 0.0 
649.666687 0.0 
649.916687 0.0 
650.25 0.0 
650.416687 0.0 
650.75 0.0 
651.0 0.0 
651.333374 0.0 
651.5 0.0 
651.833374 0.0 
652.083374 0.0 
652.416687 0.0 
652.583374 0.0 
652.833374 0.0 
652.916687 0.0 
653.0 0.0 
653.083374 0.0 
653.166687 0.0 
653.25 0.0 
653.333374 0.0 
653.416687 0.0 
653.5 0.0 
653.583374 0.0 
653.666687 0.0 
653.75 0.0 
653.833374 0.0 
653.916687 0.0 
654.0 0.0 
654.083374 0.0 
654.166687 0.0 
654.25 0.0 
654.333374 0.0 
654.416687 0.0 
654.5 0.0 
654.583374 0.0 
654.666687 0.0 
654.75 0.0 
654.833374 0.0 
654.916687 0.0 
655.0 0.0 
655.083374 0.0 
655.333374 0.475016 
655.666687 0.0 
655.833374 4.2e-05 
656.166687 0.0 
656.416687 0.0 
656.75 0.0 
656.916687 0.0 
657.25 0.0 
657.5 0.0 
657.833374 0.0 
658.0 0.0 
658.333374 0.385093 
658.666687 0.0 
659.083374 2.876294 
659.333374 1.568502 
659.75 0.0 
659.916687 6.6e-05 
660.333374 0.0 
660.5 0.0 
660.833374 0.0 
661.0 0.0 
661.333374 0.0 
661.416687 0.0 
661.583374 0.0 
661.916687 0.0 
662.083374 0.0 
662.416687 0.0 
662.5 0.0 
662.666687 0.0 
663.0 0.0 
663.166687 0.0 
663.5 0.0 
663.833374 1.574415 
664.25 5.579814 
664.75 2.146694 
665.083374 1.342052 
665.583374 7.210845 
665.916687 0.0 
666.166687 0.00034 
666.5 0.0 
666.666687 0.0 
667.083374 1.128763 
667.416687 0.0 
667.583374 6.3e-05 
667.916687 0.0 
668.0 0.0 
668.166687 0.0 
668.5 0.0 
668.666687 0.0 
669.0 0.0 
669.083374 0.0 
669.25 0.0 
669.583374 0.0 
669.75 0.0 
670.083374 0.0 
670.166687 0.0 
670.333374 0.0 
670.666687 0.0 
670.833374 0.0 
671.166687 0.0 
671.416687 1.606928 
671.75 0.0 
671.916687 0.000132 
672.25 0.0 
672.5 0.0 
672.833374 0.0 
673.0 0.0 
673.333374 0.0 
673.583374 0.0 
673.916687 0.0 
674.083374 0.0 
674.416687 0.0 
674.666687 0.0 
675.083374 1.145486 
675.5 2.214998 
675.916687 14.362254 
676.25 21.92437 
676.666687 1.630538 
677.0 0.0 
677.166687 0.000102 
677.5 0.0 
677.583374 0.0 
677.75 0.0 
678.083374 0.0 
678.25 0.0 
678.583374 0.0 
678.666687 0.0 
678.833374 0.0 
679.166687 0.0 
679.333374 0.0 
679.666687 0.0 
679.916687 0.0 
680.25 1.951224 
680.583374 0.0 
680.666687 0.0 
681.083374 11.74361 
681.416687 4.456637 
681.833374 0.0 
682.0 0.000302 
682.333374 0.0 
682.583374 0.0 
682.916687 0.0 
683.083374 0.0 
683.416687 0.0 
683.583374 0.0 
683.916687 0.0 
684.0 0.0 
684.166687 0.0 
684.416687 2.317696 
684.75 0.0 
684.916687 0.000156 
685.25 0.0 
685.333374 0.0 
685.5 0.0 
685.833374 0.0 
686.0 0.0 
686.333374 0.0 
686.583374 2.787941 
686.916687 0.0 
687.0 0.0 
687.166687 0.000163 
687.5 0.0 
687.666687 0.0 
688.0 0.0 
688.083374 0.0 
688.25 0.0 
688.583374 0.0 
688.75 0.0 
689.083374 0.0 
689.333374 0.0 
689.666687 0.0 
689.833374 0.0 
690.083374 3.388517 
690.583374 0.0 
690.666687 0.0 
690.833374 5.3e-05 
691.25 6.825015 
691.75 0.0 
691.916687 0.000139 
692.25 0.0 
692.333374 0.0 
692.5 0.0 
692.833374 0.0 
693.0 0.0 
693.333374 0.0 
693.416687 0.0 
693.583374 0.0 
693.916687 0.0 
694.083374 0.0 
694.416687 0.0 
694.666687 0.0 
695.166687 1.885046 
695.5 0.0 
695.583374 0.0 
695.75 0.000129 
696.25 3.467494 
696.583374 0.0 
696.666687 0.0 
696.833374 0.000215 
697.166687 0.0 
697.333374 0.0 
697.666687 0.0 
697.75 0.0 
697.916687 0.0 
698.25 0.0 
698.416687 0.0 
698.75 0.0 
699.0 0.0 
699.333374 0.0 
699.5 0.0 
699.833374 0.0 
700.083374 0.0 
700.416687 0.0 
700.583374 0.0 
700.916687 0.0 
701.083374 0.0 
701.416687 0.0 
701.5 0.0 
701.583374 0.0 
701.666687 0.0 
701.75 0.0 
701.833374 0.0 
701.916687 0.0 
702.0 0.0 
702.083374 0.0 
702.166687 0.0 
702.25 0.0 
702.333374 0.0 
702.416687 0.0 
702.5 0.0 
702.583374 0.0 
702.666687 0.0 
702.75 0.0 
702.833374 0.0 
702.916687 0.0 
703.0 0.0 
703.083374 0.0 
703.166687 0.0 
703.25 0.0 
703.333374 0.0 
703.583374 0.462708 
704.083374 0.634218 
704.416687 0.0 
704.666687 3.6e-05 
705.0 0.0 
705.166687 0.0 
705.5 0.0 
705.666687 0.0 
706.0 0.0 
706.083374 0.0 
706.25 0.0 
706.583374 0.0 
707.166687 5.660589 
708.166687 665.082153 
709.0 0.676196 
709.416687 0.0 
709.583374 5.5e-05 
709.916687 0.0 
710.25 2.180737 
710.666687 0.0 
710.833374 0.000175 
711.166687 0.0 
711.416687 0.0 
711.75 0.0 
711.916687 0.0 
712.166687 0.99029 
712.416687 1.382279 
713.166687 33.047886 
714.166687 1.488375 
714.583374 0.0 
714.75 0.000105 
715.083374 0.0 
715.166687 0.0 
715.333374 0.0 
715.666687 0.0 
715.833374 0.0 
716.25 0.968 
716.583374 0.0 
716.833374 4.7e-05 
717.166687 0.0 
717.333374 0.0 
717.666687 0.0 
717.833374 0.0 
718.166687 0.793637 
718.5 0.0 
718.666687 6.9e-05 
719.0 0.0 
719.25 0.0 
719.583374 1.237189 
719.916687 0.0 
720.083374 0.000102 
720.416687 0.0 
720.5 0.0 
720.75 5.545037 
721.083374 0.0 
721.166687 0.0 
721.416687 0.712375 
722.0 3.562572 
722.333374 2.305214 
722.75 0.0 
723.0 0.0001 
723.333374 0.0 
723.5 0.0 
723.833374 0.0 
724.0 0.0 
724.333374 0.0 
724.416687 0.0 
724.583374 0.0 
724.916687 0.0 
725.083374 0.0 
725.583374 2.124363 
726.083374 0.684723 
726.416687 0.0 
726.666687 4.2e-05 
727.0 0.0 
727.166687 0.0 
727.5 0.0 
727.75 0.0 
728.083374 0.0 
728.25 0.0 
728.5 0.702237 
728.833374 0.0 
729.083374 3.3e-05 
729.416687 0.0 
729.583374 0.0 
729.916687 0.0 
730.083374 0.0 
730.75 4.147347 
731.0 26.907635 
731.5 6.80578 
731.916687 0.0 
732.083374 0.000437 
732.416687 0.0 
732.666687 0.0 
733.0 0.0 
733.166687 0.0 
733.5 0.0 
733.666687 0.0 
734.083374 0.0 
734.25 0.0 
734.583374 0.0 
734.75 0.0 
735.083374 0.0 
735.166687 0.0 
735.333374 0.0 
735.666687 0.0 
735.833374 0.0 
736.333374 0.919754 
736.75 0.0 
736.916687 7e-05 
737.25 0.0 
737.416687 0.0 
737.833374 0.825899 
738.166687 0.0 
738.25 0.0 
738.416687 6.1e-05 
738.75 0.0 
739.0 0.75835 
739.333374 0.0 
739.583374 3.8e-05 
740.166687 1.784573 
740.583374 0.0 
740.75 0.000141 
741.083374 0.0 
741.333374 0.0 
741.666687 0.0 
741.833374 0.0 
742.166687 0.0 
742.416687 0.0 
742.75 0.0 
742.916687 0.0 
743.25 0.0 
743.416687 0.0 
743.75 0.0 
743.833374 0.0 
744.0 0.0 
744.333374 0.0 
744.5 0.0 
744.833374 0.0 
744.916687 0.0 
745.083374 0.0 
745.333374 0.0 
745.416687 0.0 
745.5 0.0 
745.583374 0.0 
745.666687 0.0 
745.75 0.0 
745.833374 0.0 
745.916687 0.0 
746.0 0.0 
746.083374 0.0 
746.166687 0.0 
746.25 0.0 
746.333374 0.0 
746.416687 0.0 
746.5 0.0 
746.583374 0.0 
746.666687 0.0 
746.75 0.0 
747.0 1.721035 
747.333374 0.0 
747.416687 0.0 
747.583374 0.000117 
747.916687 0.0 
748.083374 0.0 
748.416687 0.0 
748.5 0.0 
748.666687 0.0 
749.0 0.0 
749.166687 0.0 
749.5 0.0 
749.583374 0.0 
749.75 0.0 
750.083374 0.0 
750.25 0.0 
750.583374 0.0 
750.833374 0.0 
751.166687 0.0 
751.333374 0.0 
751.666687 0.0 
751.916687 0.0 
752.166687 0.0 
752.25 0.0 
752.333374 0.0 
752.416687 0.0 
752.5 0.0 
752.583374 0.0 
752.666687 0.0 
752.75 0.0 
752.833374 0.0 
752.916687 0.0 
753.0 0.0 
753.083374 0.0 
753.166687 0.0 
753.416687 0.532734 
753.833374 15.864913 
754.333374 6.094141 
754.75 0.0 
754.916687 0.000385 
755.25 0.0 
755.5 0.0 
755.833374 0.0 
756.0 0.0 
756.333374 0.0 
756.583374 0.0 
756.916687 0.0 
757.083374 0.0 
757.416687 0.0 
757.583374 0.0 
757.916687 0.0 
758.0 0.0 
758.166687 0.0 
758.5 0.0 
758.666687 0.0 
759.0 0.0 
759.083374 0.0 
759.333374 3.41785 
759.833374 0.0 
759.916687 0.0 
760.083374 0.000113 
760.416687 0.0 
760.583374 0.0 
760.916687 0.0 
761.166687 2.940047 
761.583374 0.0 
761.75 0.000192 
762.083374 0.0 
762.333374 0.0 
762.666687 0.0 
762.833374 0.0 
763.166687 0.0 
763.333374 0.0 
763.666687 0.0 
763.75 0.0 
763.916687 0.0 
764.25 0.0 
764.416687 0.0 
764.75 0.0 
764.833374 0.0 
765.0 0.0 
765.333374 0.0 
765.5 0.0 
765.833374 0.0 
765.916687 0.0 
766.083374 0.0 
766.333374 0.0 
766.416687 0.0 
766.5 0.0 
766.583374 0.0 
766.666687 0.0 
766.75 0.0 
766.833374 0.0 
766.916687 0.0 
767.0 0.0 
767.083374 0.0 
767.166687 0.0 
767.25 0.0 
767.333374 0.0 
767.416687 0.0 
767.666687 2.835891 
768.0 0.0 
768.25 0.00015 
768.75 1.35096 
769.083374 0.0 
769.583374 1.510472 
769.916687 0.0 
770.083374 0.000117 
770.416687 0.0 
770.666687 0.0 
771.0 0.0 
771.166687 0.0 
771.5 0.0 
771.75 0.0 
772.083374 0.0 
772.25 0.0 
772.666687 1.30215 
773.083374 0.0 
773.25 0.000102 
773.583374 0.0 
773.833374 0.0 
774.166687 0.0 
774.333374 0.0 
774.666687 0.0 
774.833374 0.0 
775.166687 0.0 
775.25 0.0 
775.416687 0.0 
775.75 0.0 
775.916687 0.0 
776.25 0.0 
776.333374 0.0 
776.5 0.0 
776.833374 0.0 
777.0 0.0 
777.333374 0.0 
777.416687 0.0 
777.583374 0.0 
777.833374 0.0 
777.916687 0.0 
778.0 0.0 
778.083374 0.0 
778.166687 0.0 
778.25 0.0 
778.333374 0.0 
778.416687 0.0 
778.5 0.0 
778.583374 0.0 
778.666687 0.0 
778.75 0.0 
778.833374 0.0 
778.916687 0.0 
779.0 0.0 
779.083374 0.0 
779.166687 0.0 
779.25 0.0 
779.333374 0.0 
779.416687 0.0 
779.5 0.0 
779.583374 0.0 
779.666687 0.0 
779.75 0.0 
779.833374 0.0 
779.916687 0.0 
780.0 0.0 
780.083374 0.0 
780.166687 0.0 
780.25 0.0 
780.333374 0.0 
780.416687 0.0 
780.5 0.0 
780.583374 0.0 
780.666687 0.0 
780.75 0.0 
780.833374 0.0 
780.916687 0.0 
781.0 0.0 
781.083374 0.0 
781.166687 0.0 
781.25 0.0 
781.333374 0.0 
781.416687 0.0 
781.5 0.0 
781.583374 0.0 
781.666687 0.0 
781.75 0.0 
781.833374 0.0 
781.916687 0.0 
782.0 0.0 
782.083374 0.0 
782.333374 1.084277 
782.666687 0.0 
782.75 0.0 
782.916687 6.1e-05 
783.25 0.0 
783.416687 0.0 
783.75 0.0 
784.0 0.0 
784.333374 0.0 
784.5 0.0 
784.833374 0.0 
785.25 1.528264 
785.666687 0.0 
785.833374 7.8e-05 
786.166687 0.0 
786.333374 0.0 
786.666687 0.0 
786.75 0.0 
786.916687 0.0 
787.25 0.0 
787.416687 0.0 
787.75 0.0 
787.833374 0.0 
788.0 0.0 
788.333374 0.0 
788.5 0.0 
788.833374 0.0 
788.916687 0.0 
789.083374 0.0 
789.583374 0.927078 
789.916687 0.0 
790.083374 5.5e-05 
790.416687 0.0 
790.5 0.0 
790.666687 0.0 
791.0 0.0 
791.166687 0.0 
791.5 0.0 
791.583374 0.0 
791.75 0.0 
792.083374 0.0 
792.25 0.0 
792.75 1.85529 
793.333374 0.888302 
793.666687 0.0 
793.833374 7.1e-05 
794.166687 0.0 
794.416687 0.0 
794.75 0.0 
794.916687 0.0 
795.25 0.0 
795.5 0.0 
795.833374 0.0 
796.0 0.0 
796.333374 0.0 
796.583374 0.0 
796.916687 0.0 
797.083374 0.0 
797.416687 0.0 
797.583374 0.0 
797.916687 0.0 
798.0 0.0 
798.166687 0.0 
798.416687 0.0 
798.5 0.0 
798.583374 0.0 
798.666687 0.0 
798.75 0.0 
798.833374 0.0 
798.916687 0.0 
799.0 0.0 
799.083374 0.0 
799.166687 0.0 
799.25 0.0 
799.333374 0.0 
799.416687 0.0 
799.5 0.0 
799.583374 0.0 
799.666687 0.0 
799.75 0.0 
799.833374 0.0 
799.916687 0.0 
800.0 0.0 
800.333374 0.485361 
800.666687 0.0 
800.833374 4.1e-05 
801.333374 1.092496 
801.75 0.0 
801.916687 8.7e-05 
802.25 0.0 
802.416687 0.0 
802.75 0.0 
802.833374 0.0 
803.0 0.0 
803.583374 2.22841 
803.833374 2.261528 
804.166687 0.0 
804.333374 0.000136 
804.666687 0.0 
804.75 0.0 
804.916687 0.0 
805.333374 2.416413 
805.75 0.0 
805.916687 0.000153 
806.25 0.0 
806.5 0.0 
806.833374 0.0 
807.0 0.0 
807.333374 0.0 
807.5 0.0 
807.833374 0.0 
807.916687 0.0 
808.083374 0.0 
808.416687 0.0 
808.583374 0.0 
808.916687 0.0 
809.0 0.0 
809.166687 0.0 
809.5 0.0 
809.666687 0.0 
810.0 0.0 
810.083374 0.0 
810.25 0.0 
810.5 0.0 
810.583374 0.0 
810.666687 0.0 
810.75 0.0 
810.833374 0.0 
810.916687 0.0 
811.166687 0.531138 
811.5 0.0 
811.75 2.8e-05 
812.083374 0.0 
812.25 0.0 
812.583374 0.0 
812.833374 0.0 
813.166687 0.0 
813.333374 0.0 
813.666687 1.886856 
814.0 0.0 
814.25 0.000106 
814.583374 0.0 
814.75 0.0 
815.083374 0.0 
815.5 1.143624 
815.833374 0.0 
816.0 9e-05 
816.333374 0.0 
816.583374 0.0 
816.916687 0.0 
817.083374 0.0 
817.416687 0.0 
817.666687 0.0 
818.0 0.0 
818.166687 0.0 
818.5 0.0 
818.75 0.0 
819.083374 0.0 
819.25 0.0 
819.583374 0.914186 
819.916687 0.0 
820.166687 4.7e-05 
820.5 0.0 
820.666687 0.0 
821.0 0.0 
821.25 0.0 
821.583374 0.0 
821.75 0.0 
822.083374 0.0 
822.25 0.0 
822.583374 0.0 
822.666687 0.0 
822.833374 0.0 
823.166687 0.0 
823.333374 0.0 
823.666687 0.0 
823.75 0.0 
824.0 0.915783 
824.416687 0.0 
824.583374 7e-05 
824.916687 0.0 
825.083374 0.0 
825.5 0.0 
825.666687 0.0 
826.0 0.0 
826.166687 0.0 
826.416687 4.11626 
826.833374 0.0 
827.0 0.000287 
827.333374 0.0 
827.416687 0.0 
827.583374 0.0 
827.916687 0.0 
828.166687 1.024318 
828.5 0.0 
828.583374 0.0 
828.75 7.3e-05 
829.166687 1.474636 
829.5 0.0 
829.666687 0.000111 
830.166687 1.092592 
830.5 0.57671 
830.833374 0.703176 
831.166687 0.0 
831.5 0.867615 
831.833374 0.0 
831.916687 0.0 
832.333374 1.331003 
832.75 0.0 
833.0 5.5e-05 
833.25 2.78557 
833.416687 2.78889 
833.916687 0.0 
834.083374 8.9e-05 
834.416687 0.0 
834.583374 0.0 
834.916687 0.0 
835.0 0.0 
835.166687 0.0 
835.5 0.0 
835.666687 0.0 
836.0 0.0 
836.083374 0.0 
836.25 0.0 
836.583374 0.0 
836.75 0.0 
837.083374 0.0 
837.166687 0.0 
837.333374 0.0 
837.666687 0.0 
838.083374 3.397768 
838.416687 0.0 
838.666687 0.000161 
839.0 0.0 
839.166687 0.0 
839.5 0.0 
839.666687 0.0 
840.0 0.0 
840.083374 0.0 
840.25 0.0 
840.583374 0.0 
840.916687 1.723347 
841.25 0.452448 
841.75 4.667493 
841.916687 9.097965 
842.166687 9.543677 
842.916687 0.0 
843.083374 0.000251 
843.416687 0.0 
843.5 0.0 
843.666687 0.0 
844.0 0.0 
844.166687 0.0 
844.5 0.0 
844.75 0.0 
845.166687 3.236012 
845.583374 1.527071 
846.166687 1.466127 
846.333374 1.254929 
846.666687 3.672982 
847.083374 0.471266 
847.333374 1.471819 
847.5 4.060944 
847.916687 0.0 
848.083374 0.000285 
848.333374 0.791017 
848.75 0.0 
848.916687 5.9e-05 
849.25 0.0 
849.416687 0.0 
849.75 0.0 
849.833374 0.0 
850.0 0.0 
850.25 0.690497 
850.583374 0.0 
850.666687 0.0 
850.833374 4.7e-05 
851.166687 0.0 
851.333374 0.0 
851.666687 0.0 
851.75 0.0 
851.833374 0.0 
852.083374 1.717416 
852.416687 0.0 
852.583374 9.2e-05 
853.0 0.436017 
853.416687 0.0 
853.75 1.75398 
854.333374 3.390489 
854.75 3.21642 
855.333374 1.42309 
855.75 0.0 
855.916687 8.4e-05 
856.25 0.0 
856.5 0.0 
856.833374 0.0 
857.083374 1.052921 
857.5 4.43946 
857.916687 0.0 
858.25 4.239135 
858.666687 3.787472 
859.166687 4.265908 
859.5 0.0 
859.666687 0.00025 
860.0 0.0 
860.083374 0.0 
860.25 0.0 
860.583374 0.0 
860.75 0.0 
861.083374 0.0 
861.416687 2.823539 
861.75 0.0 
861.833374 0.0 
862.083374 1.547516 
862.416687 0.0 
862.5 0.0 
862.666687 9.9e-05 
863.0 0.0 
863.166687 0.0 
863.5 0.0 
863.833374 2.106634 
864.333374 0.898922 
864.666687 0.0 
864.833374 6.8e-05 
865.166687 0.0 
865.25 0.0 
865.416687 0.0 
865.75 0.0 
865.916687 0.0 
866.25 0.0 
866.5 0.0 
866.833374 0.0 
867.0 0.0 
867.333374 0.0 
867.583374 0.0 
867.916687 0.0 
868.083374 0.0 
868.416687 0.0 
868.583374 0.0 
868.916687 0.0 
869.0 0.0 
869.333374 0.556418 
869.583374 1.989634 
869.916687 0.0 
870.166687 0.000114 
870.5 0.0 
870.666687 0.0 
871.083374 6.183357 
871.416687 3.887335 
872.166687 7.413163 
872.416687 4.86731 
873.25 72.618019 
874.0 7.808487 
874.333374 10.71572 
874.666687 8.880332 
875.083374 0.0 
875.25 0.000294 
875.583374 0.0 
875.75 0.0 
876.083374 0.0 
876.166687 0.0 
876.333374 0.0 
876.666687 0.0 
876.833374 0.0 
877.166687 0.0 
877.25 0.0 
877.416687 0.0 
877.75 0.0 
877.833374 0.0 
878.083374 3.115426 
878.416687 0.0 
878.5 0.0 
878.666687 0.000188 
879.0 0.0 
879.166687 0.0 
879.5 0.0 
879.583374 0.0 
879.75 0.0 
880.083374 0.0 
880.166687 0.0 
880.416687 0.867899 
880.75 0.0 
880.916687 5.9e-05 
881.25 0.0 
881.333374 0.0 
881.5 0.0 
881.833374 0.0 
882.0 0.0 
882.416687 4.554356 
882.75 0.0 
882.916687 0.000286 
883.25 0.0 
883.333374 0.0 
883.5 0.0 
883.833374 0.0 
884.0 0.0 
884.333374 0.0 
884.416687 0.0 
884.583374 0.0 
884.916687 0.0 
885.083374 0.0 
885.416687 0.0 
885.666687 0.0 
886.0 0.0 
886.166687 0.0 
886.5 0.0 
886.75 0.0 
887.083374 0.0 
887.25 0.0 
887.5 0.0 
887.583374 0.0 
887.666687 0.0 
887.75 0.0 
887.833374 0.0 
887.916687 0.0 
888.0 0.0 
888.083374 0.0 
888.166687 0.0 
888.25 0.0 
888.5 1.543787 
888.833374 0.0 
889.083374 8e-05 
889.416687 0.0 
889.583374 0.0 
889.916687 0.0 
890.083374 0.0 
890.416687 0.0 
890.5 0.0 
890.666687 0.0 
891.0 1.434429 
891.416687 0.0 
891.583374 0.000132 
892.0 0.670302 
892.833374 4.532865 
893.333374 0.0 
893.416687 0.0 
893.583374 0.000145 
893.916687 0.0 
894.083374 0.0 
894.416687 0.0 
894.5 0.0 
894.666687 0.0 
895.0 0.0 
895.166687 0.0 
895.5 0.0 
895.583374 0.0 
895.75 0.0 
896.083374 0.0 
896.25 0.0 
896.583374 0.0 
896.833374 0.0 
897.166687 0.0 
897.333374 0.0 
897.666687 0.0 
897.916687 0.0 
898.166687 0.0 
898.25 0.0 
898.333374 0.0 
898.416687 0.0 
898.5 0.0 
898.583374 0.0 
898.666687 0.0 
898.75 0.0 
898.833374 0.0 
898.916687 0.0 
899.0 0.0 
899.083374 0.0 
899.166687 0.0 
899.25 0.0 
899.333374 0.0 
899.416687 0.0 
899.5 0.0 
899.583374 0.0 
899.666687 0.0 
899.75 0.0 
899.833374 0.0 
899.916687 0.0 
900.0 0.0 
900.083374 0.0 
900.166687 0.0 
900.25 0.0 
900.333374 0.0 
900.416687 0.0 
900.5 0.0 
900.583374 0.0 
900.666687 0.0 
900.75 0.0 
900.833374 0.0 
900.916687 0.0 
901.0 0.0 
901.083374 0.0 
901.166687 0.0 
901.25 0.0 
901.333374 0.0 
901.416687 0.0 
901.5 0.0 
901.583374 0.0 
901.666687 0.0 
901.75 0.0 
901.833374 0.0 
901.916687 0.0 
902.0 0.0 
902.083374 0.0 
902.166687 0.0 
902.25 0.0 
902.333374 0.0 
902.416687 0.0 
902.5 0.0 
902.583374 0.0 
902.666687 0.0 
902.75 0.0 
902.833374 0.0 
902.916687 0.0 
903.0 0.0 
903.083374 0.0 
903.166687 0.0 
903.25 0.0 
903.333374 0.0 
903.416687 0.0 
903.5 0.0 
903.583374 0.0 
903.666687 0.0 
903.75 0.0 
903.833374 0.0 
903.916687 0.0 
904.0 0.0 
904.083374 0.0 
904.166687 0.0 
904.25 0.0 
904.333374 0.0 
904.416687 0.0 
904.5 0.0 
904.583374 0.0 
904.666687 0.0 
904.75 0.0 
904.833374 0.0 
904.916687 0.0 
END IONS

BEGIN IONS
TITLE=CCMSLIB00000425532
PEPMASS=174.113
CHARGE=1+
COMPOUND_NAME=HMDB:HMDB00701-978 Hexanoylglycine
ADDUCT=[M+H]1+
SMILES=CCCCCC(=O)NCC(=O)O
SCANS=814082
COLLISION_ENERGY=10.0
MS_MASS_ANALYZER=quadrupole
SPECTRUM_ID=CCMSLIB00000425532
IONMODE=positive
MS_LEVEL=2
PRECURSOR_MZ=174.113
43.648 5.361 
71.426 35.556 
76.344 100.0 
99.301 48.444 
174.148 3.778 
END IONS

BEGIN IONS
TITLE=CCMSLIB00004681487
PEPMASS=934.292
CHARGE=1+
COMPOUND_NAME=Carbamoyl-Beta-Methoxy-Asn-Albicidin
ADDUCT=[M+H]1+
SMILES=COc1c(NC(=O)c2ccc(NC(=O)c3ccc(NC(=O)C(NC(=O)c4ccc(NC(=O)C(C)=Cc5ccc(OC(N)=O)cc5)cc4)C(OC)C(N)=O)cc3)c(OC)c2O)ccc(C(=O)O)c1O
SCANS=3715
COLLISION_ENERGY=30.0
MS_MANUFACTURER=Thermo
MS_MASS_ANALYZER=orbitrap
MS_IONISATION=ESI
SPECTRUM_ID=CCMSLIB00004681487
IONMODE=positive
MS_LEVEL=2
PRECURSOR_MZ=934.292
245.166672 0.0 
245.25 0.0 
245.333328 0.0 
245.416672 0.0 
245.5 0.0 
245.583328 0.0 
245.666672 0.0 
245.75 0.0 
245.833328 0.0 
245.916672 0.0 
246.0 0.0 
246.083328 0.0 
246.166672 0.0 
246.25 0.0 
246.333328 0.0 
246.416672 0.0 
246.5 0.0 
246.583328 0.0 
246.666672 0.0 
246.75 0.0 
246.833328 0.0 
246.916672 0.0 
247.0 0.0 
247.083328 0.0 
247.166672 0.0 
247.25 0.0 
247.333328 0.0 
247.416672 0.0 
247.5 0.0 
247.583328 0.0 
247.666672 0.0 
247.75 0.0 
247.833328 0.0 
247.916672 0.0 
248.0 0.0 
248.083328 0.0 
248.166672 0.0 
248.25 0.0 
248.333328 0.0 
248.416672 0.0 
248.5 0.0 
248.583328 0.0 
248.666672 0.0 
248.75 0.0 
248.833328 0.0 
248.916672 0.0 
249.0 0.0 
249.083328 0.0 
249.166672 0.0 
249.25 0.0 
249.333328 0.0 
249.416672 0.0 
249.5 0.0 
249.583328 0.0 
249.666672 0.0 
249.75 0.0 
249.833328 0.0 
249.916672 0.0 
250.0 0.0 
250.083328 0.0 
250.166672 0.0 
250.25 0.0 
250.333328 0.0 
250.416672 0.0 
250.5 0.0 
250.583328 0.0 
250.666672 0.0 
250.75 0.0 
250.833328 0.0 
250.916672 0.0 
251.0 0.0 
251.083328 0.0 
251.166672 0.0 
251.25 0.0 
251.333328 0.0 
251.416672 0.0 
251.5 0.0 
251.583328 0.0 
251.666672 0.0 
251.75 0.0 
251.833328 0.0 
251.916672 0.0 
252.0 0.0 
252.083328 0.0 
252.166672 0.0 
252.25 0.0 
252.333328 0.0 
252.416672 0.0 
252.5 0.0 
252.583328 0.0 
252.666672 0.0 
252.75 0.0 
252.833328 0.0 
252.916672 0.0 
253.0 0.0 
253.083328 0.0 
253.166672 0.0 
253.25 0.0 
253.333328 0.0 
253.416672 0.0 
253.5 0.0 
253.583328 0.0 
253.666672 0.0 
253.75 0.0 
253.833328 0.0 
253.916672 0.0 
254.0 0.0 
254.083328 0.0 
254.166672 0.0 
254.25 0.0 
254.333328 0.0 
254.416672 0.0 
254.5 0.0 
254.583328 0.0 
254.666672 0.0 
254.75 0.0 
254.833328 0.0 
254.916672 0.0 
255.0 0.0 
255.083328 0.0 
255.166672 0.0 
255.25 0.0 
255.333328 0.0 
255.416672 0.0 
255.5 0.0 
255.583328 0.0 
255.666672 0.0 
255.75 0.0 
255.833328 0.0 
255.916672 0.0 
256.0 0.0 
256.083344 0.0 
256.166656 0.0 
256.25 0.0 
256.333344 0.0 
256.416656 0.0 
256.5 0.0 
256.583344 0.0 
256.666656 0.0 
256.75 0.0 
256.833344 0.0 
256.916656 0.0 
257.0 0.0 
257.083344 0.0 
257.166656 0.0 
257.25 0.0 
257.333344 0.0 
257.416656 0.0 
257.5 0.0 
257.583344 0.0 
257.666656 0.0 
257.75 0.0 
257.833344 0.0 
257.916656 0.0 
258.0 0.0 
258.083344 0.0 
258.166656 0.0 
258.25 0.0 
258.333344 0.0 
258.416656 0.0 
258.5 0.0 
258.583344 0.0 
258.666656 0.0 
258.75 0.0 
258.833344 0.0 
258.916656 0.0 
259.0 0.0 
259.083344 0.0 
259.166656 0.0 
259.25 0.0 
259.333344 0.0 
259.416656 0.0 
259.5 0.0 
259.583344 0.0 
259.666656 0.0 
259.75 0.0 
259.833344 0.0 
259.916656 0.0 
260.0 0.0 
260.083344 0.0 
260.166656 0.0 
260.25 0.0 
260.333344 0.0 
260.416656 0.0 
260.5 0.0 
260.583344 0.0 
260.666656 0.0 
260.75 0.0 
260.833344 0.0 
260.916656 0.0 
261.0 0.0 
261.083344 0.0 
261.166656 0.0 
261.25 0.0 
261.333344 0.0 
261.416656 0.0 
261.5 0.0 
261.583344 0.0 
261.666656 0.0 
261.75 0.0 
261.833344 0.0 
261.916656 0.0 
262.0 0.0 
262.083344 0.0 
262.166656 0.0 
262.25 0.0 
262.333344 0.0 
262.416656 0.0 
262.5 0.0 
262.583344 0.0 
262.666656 0.0 
262.75 0.0 
262.833344 0.0 
262.916656 0.0 
263.0 0.0 
263.083344 0.0 
263.166656 0.0 
263.25 0.0 
263.333344 0.0 
263.416656 0.0 
263.75 6.118235 
263.916656 5.064777 
264.333344 1.000613 
264.666656 0.0 
264.833344 5.8e-05 
265.166656 0.0 
265.25 0.0 
265.416656 0.0 
265.75 0.0 
265.916656 0.0 
266.25 0.0 
266.333344 0.0 
266.5 0.0 
266.833344 0.0 
267.0 0.0 
267.333344 0.0 
267.416656 0.0 
267.583344 0.0 
267.916656 0.0 
268.083344 0.0 
268.416656 0.0 
268.666656 0.0 
269.0 0.0 
269.166656 0.0 
269.416656 0.0 
269.5 0.0 
269.583344 0.0 
269.666656 0.0 
269.75 0.0 
269.833344 0.0 
269.916656 0.0 
270.0 0.0 
270.083344 0.0 
270.166656 0.0 
270.25 0.0 
270.333344 0.0 
270.416656 0.0 
270.5 0.0 
270.583344 0.0 
270.666656 0.0 
270.75 0.0 
270.833344 0.0 
270.916656 0.0 
271.0 0.0 
271.083344 0.0 
271.166656 0.0 
271.25 0.0 
271.333344 0.0 
271.416656 0.0 
271.5 0.0 
271.583344 0.0 
271.666656 0.0 
271.75 0.0 
271.833344 0.0 
271.916656 0.0 
272.0 0.0 
272.083344 0.0 
272.166656 0.0 
272.25 0.0 
272.333344 0.0 
272.416656 0.0 
272.5 0.0 
272.583344 0.0 
272.666656 0.0 
272.75 0.0 
272.833344 0.0 
272.916656 0.0 
273.0 0.0 
273.083344 0.0 
273.166656 0.0 
273.25 0.0 
273.333344 0.0 
273.416656 0.0 
273.5 0.0 
273.583344 0.0 
273.666656 0.0 
273.75 0.0 
273.833344 0.0 
273.916656 0.0 
274.0 0.0 
274.083344 0.0 
274.166656 0.0 
274.25 0.0 
274.333344 0.0 
274.416656 0.0 
274.5 0.0 
274.583344 0.0 
274.666656 0.0 
274.75 0.0 
274.833344 0.0 
274.916656 0.0 
275.0 0.0 
275.083344 0.0 
275.166656 0.0 
275.25 0.0 
275.333344 0.0 
275.416656 0.0 
275.5 0.0 
275.583344 0.0 
275.666656 0.0 
275.75 0.0 
275.833344 0.0 
275.916656 0.0 
276.0 0.0 
276.083344 0.0 
276.166656 0.0 
276.25 0.0 
276.333344 0.0 
276.416656 0.0 
276.5 0.0 
276.583344 0.0 
276.666656 0.0 
276.75 0.0 
276.833344 0.0 
276.916656 0.0 
277.0 0.0 
277.083344 0.0 
277.166656 0.0 
277.25 0.0 
277.333344 0.0 
277.416656 0.0 
277.5 0.0 
277.583344 0.0 
277.666656 0.0 
277.75 0.0 
277.833344 0.0 
277.916656 0.0 
278.0 0.0 
278.083344 0.0 
278.166656 0.0 
278.25 0.0 
278.333344 0.0 
278.416656 0.0 
278.5 0.0 
278.583344 0.0 
278.666656 0.0 
278.75 0.0 
278.833344 0.0 
278.916656 0.0 
279.0 0.0 
279.083344 0.0 
279.166656 0.0 
279.25 0.0 
279.333344 0.0 
279.416656 0.0 
279.5 0.0 
280.0 6.05582 
280.583344 0.0 
280.75 8.9e-05 
281.083344 0.0 
281.333344 0.0 
281.666656 0.0 
281.833344 0.0 
282.166656 0.0 
282.416656 0.0 
282.75 0.0 
283.083344 1.191183 
283.416656 0.0 
283.5 0.0 
283.666656 8.1e-05 
284.0 0.0 
284.166656 0.0 
284.5 2.311925 
285.083344 48.321259 
285.666656 0.0 
285.75 0.0 
285.916656 0.000858 
286.25 0.0 
286.416656 0.0 
286.75 0.0 
287.0 0.0 
287.333344 0.0 
287.5 0.0 
287.833344 0.0 
288.083344 0.0 
288.416656 0.0 
288.583344 0.0 
288.916656 0.0 
289.166656 0.0 
289.5 0.0 
289.666656 0.0 
290.0 0.0 
290.166656 0.0 
290.5 0.0 
290.583344 0.0 
290.666656 0.0 
290.75 0.0 
290.833344 0.0 
290.916656 0.0 
291.0 0.0 
291.083344 0.0 
291.166656 0.0 
291.25 0.0 
291.333344 0.0 
291.416656 0.0 
291.5 0.0 
291.583344 0.0 
291.666656 0.0 
291.75 0.0 
291.833344 0.0 
291.916656 0.0 
292.0 0.0 
292.083344 0.0 
292.166656 0.0 
292.25 0.0 
292.333344 0.0 
292.416656 0.0 
292.5 0.0 
292.583344 0.0 
292.666656 0.0 
292.75 0.0 
292.833344 0.0 
292.916656 0.0 
293.0 0.0 
293.083344 0.0 
293.166656 0.0 
293.25 0.0 
293.333344 0.0 
293.416656 0.0 
293.5 0.0 
293.583344 0.0 
293.666656 0.0 
293.75 0.0 
293.833344 0.0 
293.916656 0.0 
294.0 0.0 
294.083344 0.0 
294.166656 0.0 
294.25 0.0 
294.333344 0.0 
294.416656 0.0 
294.5 0.0 
294.583344 0.0 
294.666656 0.0 
294.75 0.0 
294.833344 0.0 
294.916656 0.0 
295.0 0.0 
295.083344 0.0 
295.166656 0.0 
295.25 0.0 
295.333344 0.0 
295.416656 0.0 
295.5 0.0 
295.583344 0.0 
295.666656 0.0 
295.75 0.0 
295.833344 0.0 
295.916656 0.0 
296.0 0.0 
296.083344 0.0 
296.166656 0.0 
296.25 0.0 
296.333344 0.0 
296.416656 0.0 
296.5 0.0 
296.583344 0.0 
296.666656 0.0 
296.75 0.0 
296.833344 0.0 
296.916656 0.0 
297.0 0.0 
297.083344 0.0 
297.166656 0.0 
297.25 0.0 
297.333344 0.0 
297.416656 0.0 
297.5 0.0 
297.583344 0.0 
297.666656 0.0 
297.75 0.0 
297.833344 0.0 
297.916656 0.0 
298.0 0.0 
298.083344 0.0 
298.166656 0.0 
298.25 0.0 
298.333344 0.0 
298.416656 0.0 
298.5 0.0 
298.583344 0.0 
298.666656 0.0 
298.75 0.0 
298.833344 0.0 
298.916656 0.0 
299.0 0.0 
299.083344 0.0 
299.166656 0.0 
299.25 0.0 
299.333344 0.0 
299.416656 0.0 
299.5 0.0 
299.583344 0.0 
299.666656 0.0 
299.75 0.0 
299.833344 0.0 
299.916656 0.0 
300.0 0.0 
300.083344 0.0 
300.166656 0.0 
300.25 0.0 
300.333344 0.0 
300.416656 0.0 
300.5 0.0 
300.583344 0.0 
300.666656 0.0 
300.75 0.0 
300.833344 0.0 
300.916656 0.0 
301.0 0.0 
301.083344 0.0 
301.166656 0.0 
301.25 0.0 
301.333344 0.0 
301.416656 0.0 
301.5 0.0 
301.583344 0.0 
301.666656 0.0 
301.75 0.0 
301.833344 0.0 
301.916656 0.0 
302.0 0.0 
302.083344 0.0 
302.166656 0.0 
302.25 0.0 
302.333344 0.0 
302.416656 0.0 
302.5 0.0 
302.583344 0.0 
302.666656 0.0 
302.75 0.0 
302.833344 0.0 
302.916656 0.0 
303.0 0.0 
303.083344 0.0 
303.166656 0.0 
303.25 0.0 
303.333344 0.0 
303.416656 0.0 
303.5 0.0 
303.583344 0.0 
303.666656 0.0 
303.75 0.0 
303.833344 0.0 
303.916656 0.0 
304.0 0.0 
304.083344 0.0 
304.166656 0.0 
304.25 0.0 
304.333344 0.0 
304.416656 0.0 
304.5 0.0 
304.583344 0.0 
304.666656 0.0 
304.75 0.0 
304.833344 0.0 
304.916656 0.0 
305.0 0.0 
305.083344 0.0 
305.166656 0.0 
305.25 0.0 
305.333344 0.0 
305.416656 0.0 
305.5 0.0 
305.583344 0.0 
305.666656 0.0 
305.75 0.0 
305.833344 0.0 
305.916656 0.0 
306.0 0.0 
306.083344 0.0 
306.166656 0.0 
306.25 0.0 
306.333344 0.0 
306.416656 0.0 
306.5 0.0 
306.583344 0.0 
306.666656 0.0 
306.75 0.0 
306.833344 0.0 
306.916656 0.0 
307.0 0.0 
307.083344 0.0 
307.166656 0.0 
307.25 0.0 
307.333344 0.0 
307.416656 0.0 
307.5 0.0 
307.583344 0.0 
307.666656 0.0 
307.75 0.0 
307.833344 0.0 
307.916656 0.0 
308.0 0.0 
308.083344 0.0 
308.166656 0.0 
308.25 0.0 
308.333344 0.0 
308.416656 0.0 
308.5 0.0 
308.583344 0.0 
308.666656 0.0 
308.75 0.0 
308.833344 0.0 
308.916656 0.0 
309.0 0.0 
309.083344 0.0 
309.166656 0.0 
309.25 0.0 
309.333344 0.0 
309.416656 0.0 
309.5 0.0 
309.583344 0.0 
309.666656 0.0 
309.75 0.0 
309.833344 0.0 
309.916656 0.0 
310.0 0.0 
310.083344 0.0 
310.166656 0.0 
310.25 0.0 
310.333344 0.0 
310.416656 0.0 
310.5 0.0 
310.583344 0.0 
310.666656 0.0 
310.75 0.0 
310.833344 0.0 
310.916656 0.0 
311.0 0.0 
311.083344 0.0 
311.166656 0.0 
311.25 0.0 
311.333344 0.0 
311.416656 0.0 
311.5 0.0 
311.583344 0.0 
311.666656 0.0 
311.75 0.0 
311.833344 0.0 
311.916656 0.0 
312.0 0.0 
312.083344 0.0 
312.166656 0.0 
312.25 0.0 
312.333344 0.0 
312.416656 0.0 
312.5 0.0 
312.583344 0.0 
312.666656 0.0 
312.75 0.0 
313.0 0.477726 
313.416656 0.0 
313.583344 3.8e-05 
313.916656 0.0 
314.083344 0.0 
314.416656 0.0 
314.5 0.0 
314.666656 0.0 
315.0 0.0 
315.166656 0.0 
315.5 0.0 
315.583344 0.0 
315.75 0.0 
316.083344 0.0 
316.25 0.0 
316.583344 0.0 
316.666656 0.0 
316.833344 0.0 
317.166656 0.0 
317.333344 0.0 
317.666656 0.0 
317.75 0.0 
317.916656 0.0 
318.083344 0.0 
318.166656 0.0 
318.25 0.0 
318.333344 0.0 
318.416656 0.0 
318.5 0.0 
318.583344 0.0 
318.666656 0.0 
318.75 0.0 
318.833344 0.0 
318.916656 0.0 
319.0 0.0 
319.083344 0.0 
319.166656 0.0 
319.25 0.0 
319.333344 0.0 
319.416656 0.0 
319.5 0.0 
319.583344 0.0 
319.666656 0.0 
319.75 0.0 
319.833344 0.0 
319.916656 0.0 
320.0 0.0 
320.083344 0.0 
320.166656 0.0 
320.25 0.0 
320.333344 0.0 
320.416656 0.0 
320.5 0.0 
320.583344 0.0 
320.666656 0.0 
320.75 0.0 
320.833344 0.0 
321.0 1.389931 
321.416656 0.0 
321.583344 0.000141 
321.916656 0.0 
322.083344 0.0 
323.083344 1224.832031 
323.916656 0.0 
324.0 0.0 
324.166656 0.000441 
324.5 0.0 
324.666656 0.0 
325.0 0.0 
325.25 0.0 
325.583344 0.0 
325.75 0.0 
326.083344 0.0 
326.333344 0.0 
326.666656 0.0 
326.833344 0.0 
327.166656 0.0 
327.333344 0.0 
327.75 0.0 
327.833344 0.0 
328.166656 1.709007 
328.666656 0.0 
328.833344 7.5e-05 
329.166656 0.0 
329.333344 0.0 
329.75 0.0 
329.916656 0.0 
330.25 0.0 
330.416656 0.0 
331.166656 31.45627 
331.583344 0.0 
331.833344 0.000844 
332.166656 0.0 
332.333344 0.0 
332.666656 0.0 
332.916656 0.0 
333.25 0.751409 
333.583344 0.0 
333.833344 4.1e-05 
334.166656 0.0 
334.333344 0.0 
334.666656 0.0 
334.833344 0.0 
335.166656 0.0 
335.25 0.0 
335.416656 0.0 
335.75 0.0 
335.916656 0.0 
336.25 0.0 
336.333344 0.0 
336.5 0.0 
336.833344 0.0 
337.0 0.0 
337.333344 0.0 
337.416656 0.0 
337.583344 0.0 
337.916656 0.0 
338.083344 0.0 
338.333344 0.0 
338.416656 0.0 
338.5 0.0 
338.583344 0.0 
338.666656 0.0 
338.916656 0.662608 
339.25 0.0 
339.333344 0.0 
339.5 4.1e-05 
339.833344 0.0 
340.0 0.0 
340.333344 0.0 
340.583344 0.0 
340.916656 0.0 
341.25 0.865154 
341.583344 0.0 
341.75 4.8e-05 
342.083344 0.0 
342.166656 0.0 
342.333344 0.0 
342.666656 0.0 
342.833344 0.0 
343.166656 0.0 
343.25 0.0 
343.416656 0.0 
343.75 0.0 
343.916656 0.0 
344.25 0.0 
344.333344 0.0 
344.5 0.0 
344.833344 0.0 
345.0 0.0 
345.333344 0.0 
345.583344 0.0 
345.916656 0.0 
346.083344 0.0 
346.333344 0.0 
346.416656 0.0 
346.5 0.0 
346.583344 0.0 
346.666656 0.0 
346.75 0.0 
346.833344 0.0 
346.916656 0.0 
347.0 0.0 
347.083344 0.0 
347.166656 0.0 
347.25 0.0 
347.333344 0.0 
347.416656 0.0 
347.5 0.0 
347.583344 0.0 
347.666656 0.0 
347.75 0.0 
347.833344 0.0 
347.916656 0.0 
348.0 0.0 
348.083344 0.0 
348.166656 0.0 
348.25 0.0 
348.333344 0.0 
348.416656 0.0 
348.5 0.0 
348.583344 0.0 
348.666656 0.0 
349.0 6.741682 
349.5 0.0 
349.75 0.000117 
350.083344 0.0 
350.25 0.0 
350.583344 0.0 
350.75 0.0 
351.083344 0.0 
351.166656 0.0 
351.333344 0.0 
351.666656 0.0 
351.833344 0.0 
352.166656 0.0 
352.25 0.0 
352.416656 0.0 
353.0 0.705288 
353.25 0.796629 
353.583344 0.0 
353.666656 0.0 
353.833344 5.2e-05 
354.166656 0.0 
354.333344 0.0 
354.666656 0.0 
354.75 0.0 
354.916656 0.0 
355.25 0.0 
355.416656 0.0 
355.75 0.0 
356.0 0.0 
356.333344 0.0 
356.5 0.0 
356.833344 0.0 
357.083344 0.0 
357.416656 0.0 
357.583344 0.0 
357.916656 0.0 
358.166656 0.0 
358.333344 0.0 
358.416656 0.0 
358.5 0.0 
358.583344 0.0 
358.666656 0.0 
358.75 0.0 
358.833344 0.0 
358.916656 0.0 
359.0 0.0 
359.083344 0.0 
359.166656 0.0 
359.25 0.0 
359.333344 0.0 
359.416656 0.0 
359.5 0.0 
359.583344 0.0 
359.666656 0.0 
359.75 0.0 
359.833344 0.0 
359.916656 0.0 
360.0 0.0 
360.083344 0.0 
360.166656 0.0 
360.25 0.0 
360.333344 0.0 
360.416656 0.0 
360.5 0.0 
360.583344 0.0 
360.666656 0.0 
360.75 0.0 
360.833344 0.0 
360.916656 0.0 
361.0 0.0 
361.083344 0.0 
361.166656 0.0 
361.25 0.0 
361.333344 0.0 
361.416656 0.0 
361.5 0.0 
361.583344 0.0 
361.666656 0.0 
361.75 0.0 
361.833344 0.0 
361.916656 0.0 
362.0 0.0 
362.083344 0.0 
362.166656 0.0 
362.25 0.0 
362.333344 0.0 
362.416656 0.0 
362.5 0.0 
362.583344 0.0 
362.666656 0.0 
362.75 0.0 
362.833344 0.0 
362.916656 0.0 
363.0 0.0 
363.083344 0.0 
363.166656 0.0 
363.25 0.0 
363.333344 0.0 
363.416656 0.0 
363.5 0.0 
363.583344 0.0 
363.666656 0.0 
363.75 0.0 
364.083344 2.626158 
364.416656 0.0 
364.583344 0.000133 
365.083344 2.253791 
365.416656 0.0 
365.666656 0.000114 
366.0 0.0 
366.166656 0.0 
366.5 0.0 
366.666656 0.0 
367.083344 0.0 
367.25 0.0 
367.583344 0.0 
367.75 0.0 
368.083344 0.0 
368.166656 0.0 
368.333344 0.0 
368.666656 0.0 
368.833344 0.0 
369.166656 0.0 
369.25 0.0 
369.416656 0.0 
369.75 0.0 
369.916656 0.0 
370.166656 0.0 
370.25 0.0 
370.333344 0.0 
370.416656 0.0 
370.5 0.0 
370.583344 0.0 
370.666656 0.0 
370.75 0.0 
370.833344 0.0 
370.916656 0.0 
371.0 0.0 
371.083344 0.0 
371.166656 0.0 
371.25 0.0 
371.333344 0.0 
371.416656 0.0 
371.5 0.0 
371.583344 0.0 
371.666656 0.0 
371.75 0.0 
371.833344 0.0 
371.916656 0.0 
372.0 0.0 
372.083344 0.0 
372.166656 0.0 
372.25 0.0 
372.333344 0.0 
372.416656 0.0 
372.5 0.0 
372.583344 0.0 
372.666656 0.0 
372.75 0.0 
372.833344 0.0 
372.916656 0.0 
373.0 0.0 
373.083344 0.0 
373.166656 0.0 
373.25 0.0 
373.333344 0.0 
373.416656 0.0 
373.5 0.0 
373.583344 0.0 
373.666656 0.0 
373.75 0.0 
373.833344 0.0 
373.916656 0.0 
374.0 0.0 
374.083344 0.0 
374.166656 0.0 
374.25 0.0 
374.333344 0.0 
374.416656 0.0 
374.5 0.0 
374.583344 0.0 
374.666656 0.0 
374.75 0.0 
375.0 1.676407 
375.416656 0.0 
375.583344 0.000152 
375.916656 0.0 
376.166656 0.0 
376.5 0.0 
376.666656 0.0 
377.0 0.0 
377.166656 0.0 
377.5 0.0 
377.583344 0.0 
377.75 0.0 
378.083344 0.0 
378.25 0.0 
378.583344 0.0 
378.916656 2.143441 
379.25 1.161781 
379.583344 0.0 
379.666656 0.0 
379.833344 7.5e-05 
380.083344 0.807367 
380.416656 0.0 
380.666656 4.2e-05 
381.0 0.0 
381.166656 0.0 
381.5 0.0 
381.666656 0.0 
382.0 0.0 
382.083344 0.0 
382.25 0.0 
382.583344 0.0 
382.666656 0.0 
382.916656 2.776075 
383.25 0.608258 
383.583344 0.0 
383.666656 0.0 
383.833344 5.8e-05 
384.166656 0.0 
384.333344 0.0 
384.666656 0.0 
384.75 0.0 
384.916656 0.0 
385.25 0.0 
385.416656 0.0 
385.75 0.0 
385.833344 0.0 
386.0 0.0 
386.333344 0.0 
386.5 0.0 
386.833344 0.0 
387.083344 0.0 
387.416656 0.0 
387.583344 0.0 
387.916656 0.0 
388.166656 0.0 
388.333344 0.0 
388.416656 0.0 
388.5 0.0 
388.583344 0.0 
388.666656 0.0 
388.75 0.0 
388.833344 0.0 
388.916656 0.0 
389.0 0.0 
389.083344 0.0 
389.166656 0.0 
389.25 0.0 
389.333344 0.0 
389.416656 0.0 
389.5 0.0 
389.583344 0.0 
389.666656 0.0 
389.75 0.0 
389.833344 0.0 
389.916656 0.0 
390.0 0.0 
390.083344 0.0 
390.166656 0.0 
390.25 0.0 
390.333344 0.0 
390.416656 0.0 
390.5 0.0 
390.583344 0.0 
390.666656 0.0 
390.75 0.0 
390.833344 0.0 
390.916656 0.0 
391.0 0.0 
391.083344 0.0 
391.166656 0.0 
391.25 0.0 
391.583344 0.921042 
392.333344 7.204207 
392.666656 0.0 
392.75 0.0 
392.916656 0.000364 
393.25 1.930021 
393.583344 0.0 
393.75 0.00018 
394.25 0.604558 
394.583344 0.0 
394.666656 0.0 
394.833344 4.3e-05 
395.166656 0.0 
395.333344 0.0 
396.333344 18.851566 
396.833344 0.0 
397.083344 0.000377 
397.416656 0.0 
397.583344 0.0 
397.916656 0.0 
398.083344 0.0 
398.416656 0.0 
398.5 0.0 
398.666656 0.0 
399.25 5.622875 
399.75 0.0 
399.916656 0.000231 
400.25 0.0 
400.5 0.0 
400.833344 0.0 
400.916656 0.0 
401.083344 0.826144 
401.416656 0.0 
401.5 0.0 
401.666656 8e-05 
402.0 0.0 
402.166656 0.0 
402.5 0.0 
402.583344 0.0 
402.75 0.0 
403.083344 0.0 
403.25 0.0 
403.583344 0.0 
403.666656 0.0 
403.75 0.0 
404.083344 1.806125 
404.416656 0.0 
404.666656 8.3e-05 
405.0 0.0 
405.166656 0.0 
405.5 0.0 
405.666656 0.0 
406.0 0.0 
406.083344 0.0 
406.25 0.0 
406.583344 0.0 
406.75 0.0 
407.25 0.879775 
407.583344 0.0 
407.666656 0.0 
407.833344 6.2e-05 
408.166656 0.0 
408.333344 0.0 
408.666656 0.0 
408.75 0.0 
408.916656 0.0 
409.25 0.0 
409.416656 0.0 
409.75 0.0 
409.833344 0.0 
410.0 0.0 
410.333344 0.0 
410.5 0.0 
410.833344 0.0 
411.25 1.384931 
411.583344 0.0 
411.75 0.000122 
412.083344 0.0 
412.333344 0.0 
412.666656 0.0 
412.833344 0.0 
413.166656 0.0 
413.416656 0.0 
413.75 0.0 
413.916656 0.0 
414.416656 2.223509 
414.75 0.0 
414.916656 0.00012 
415.25 0.0 
415.333344 0.0 
415.5 0.0 
415.833344 0.0 
416.0 0.0 
416.333344 0.0 
416.416687 0.0 
416.583344 0.0 
417.083344 2.81998 
418.25 67.93914 
418.833344 0.0 
419.0 0.00063 
419.333344 0.0 
419.583344 0.0 
419.916687 0.0 
420.083344 0.0 
420.416687 0.0 
420.583344 0.0 
420.916687 0.0 
421.0 0.0 
421.166687 0.0 
421.583344 3.175736 
422.166687 53.013821 
422.916687 0.0 
423.166687 0.000546 
423.666687 3.692406 
424.25 14.034639 
424.75 0.0 
425.0 0.000269 
425.333344 0.0 
425.5 0.0 
425.833344 0.0 
426.083344 0.0 
426.416687 0.0 
426.583344 0.0 
426.916687 0.0 
427.083344 0.0 
427.5 0.0 
427.666687 0.0 
428.0 0.0 
428.166687 0.0 
428.5 0.0 
428.583344 0.0 
428.75 0.0 
429.083344 0.0 
429.25 0.0 
429.583344 0.0 
429.666687 0.0 
429.75 0.0 
429.833344 0.0 
429.916687 0.0 
430.0 0.0 
430.083344 0.0 
430.166687 0.0 
430.25 0.0 
430.333344 0.0 
430.416687 0.0 
430.5 0.0 
430.583344 0.0 
430.666687 0.0 
430.75 0.0 
430.833344 0.0 
430.916687 0.0 
431.0 0.0 
431.083344 0.0 
431.166687 0.0 
431.25 0.0 
431.333344 0.0 
431.416687 0.0 
431.5 0.0 
431.583344 0.0 
431.666687 0.0 
431.75 0.0 
431.833344 0.0 
431.916687 0.0 
432.0 0.0 
432.083344 0.0 
432.166687 0.0 
432.25 0.0 
432.333344 0.0 
432.416687 0.0 
432.5 0.0 
432.583344 0.0 
432.666687 0.0 
432.75 0.0 
432.833344 0.0 
432.916687 0.0 
433.0 0.0 
433.083344 0.0 
433.166687 0.0 
433.25 0.0 
433.333344 0.0 
433.416687 0.0 
433.5 0.0 
433.583344 0.0 
433.666687 0.0 
433.75 0.0 
433.833344 0.0 
433.916687 0.0 
434.0 0.0 
434.083344 0.0 
434.166687 0.0 
434.416687 3.198685 
435.083344 83.749954 
436.0 2.189738 
436.333344 0.0 
436.416687 0.0 
436.583344 0.000131 
436.916687 0.0 
437.083344 0.0 
437.416687 0.0 
437.666687 0.0 
438.0 0.0 
438.166687 0.0 
438.5 0.0 
439.0 29.170179 
439.25 28.257299 
439.833344 0.0 
440.083344 0.00059 
440.416687 0.0 
440.583344 0.0 
440.916687 0.0 
441.166687 0.0 
441.5 0.0 
441.666687 0.0 
442.0 0.0 
442.25 0.0 
442.583344 0.0 
442.75 0.0 
443.083344 0.0 
443.25 0.0 
443.583344 0.0 
443.666687 0.0 
443.833344 0.0 
444.166687 0.0 
444.333344 0.0 
444.666687 0.0 
444.75 0.0 
444.833344 0.0 
444.916687 0.0 
445.0 0.0 
445.083344 0.0 
445.166687 0.0 
445.25 0.0 
445.333344 0.0 
445.416687 0.0 
445.5 0.0 
445.583344 0.0 
445.666687 0.0 
445.75 0.0 
445.833344 0.0 
445.916687 0.0 
446.0 0.0 
446.083344 0.0 
446.166687 0.0 
446.25 0.0 
446.333344 0.0 
446.416687 0.0 
446.5 0.0 
446.583344 0.0 
446.666687 0.0 
446.75 0.0 
446.833344 0.0 
446.916687 0.0 
447.0 0.0 
447.083344 0.0 
447.166687 0.0 
447.25 0.0 
447.333344 0.0 
447.416687 0.0 
447.5 0.0 
447.583344 0.0 
447.666687 0.0 
447.75 0.0 
447.833344 0.0 
447.916687 0.0 
448.0 0.0 
448.083344 0.0 
448.166687 0.0 
448.25 0.0 
448.333344 0.0 
448.416687 0.0 
448.5 0.0 
448.583344 0.0 
448.666687 0.0 
448.75 0.0 
448.833344 0.0 
448.916687 0.0 
449.0 0.0 
449.25 4.531933 
449.666687 0.0 
449.916687 0.000138 
450.166687 0.584979 
450.5 0.0 
450.583344 0.0 
450.75 3.9e-05 
451.083344 0.0 
451.25 0.0 
451.583344 0.0 
451.666687 0.0 
451.833344 0.0 
452.166687 0.0 
452.333344 0.0 
452.666687 0.0 
452.75 0.0 
452.916687 0.0 
453.25 0.0 
453.416687 0.0 
453.75 0.0 
454.0 0.0 
454.333344 0.0 
454.5 0.0 
454.833344 0.0 
454.916687 0.0 
455.083344 0.0 
455.25 0.0 
455.333344 0.0 
455.416687 0.0 
455.5 0.0 
455.583344 0.0 
455.666687 0.0 
455.75 0.0 
455.833344 0.0 
455.916687 0.0 
456.0 0.0 
456.083344 0.0 
456.166687 0.0 
456.25 0.0 
456.333344 0.0 
456.416687 0.0 
456.5 0.0 
456.583344 0.0 
456.666687 0.0 
456.75 0.0 
456.833344 0.0 
456.916687 0.0 
457.0 0.0 
457.083344 0.0 
457.166687 0.0 
457.25 0.0 
457.333344 0.0 
457.416687 0.0 
457.5 0.0 
457.583344 0.0 
457.666687 0.0 
457.75 0.0 
457.833344 0.0 
457.916687 0.0 
458.0 0.0 
458.083344 0.0 
458.166687 0.0 
458.25 0.0 
458.333344 0.0 
458.416687 0.0 
458.5 0.0 
458.583344 0.0 
458.666687 0.0 
458.75 0.0 
458.833344 0.0 
458.916687 0.0 
459.0 0.0 
459.083344 0.0 
459.166687 0.0 
459.25 0.0 
459.333344 0.0 
459.416687 0.0 
459.5 0.0 
459.583344 0.0 
459.666687 0.0 
459.75 0.0 
459.833344 0.0 
459.916687 0.0 
460.0 0.0 
460.083344 0.0 
460.166687 0.0 
460.25 0.0 
460.333344 0.0 
460.416687 0.0 
460.5 0.0 
460.583344 0.0 
460.666687 0.0 
460.75 0.0 
460.833344 0.0 
460.916687 0.0 
461.0 0.0 
461.083344 0.0 
461.166687 0.0 
461.25 0.0 
461.333344 0.0 
461.416687 0.0 
461.5 0.0 
461.583344 0.0 
461.666687 0.0 
461.75 0.0 
461.833344 0.0 
461.916687 0.0 
462.0 0.0 
462.083344 0.0 
462.166687 0.0 
462.25 0.0 
462.333344 0.0 
462.416687 0.0 
462.5 0.0 
462.583344 0.0 
462.666687 0.0 
462.75 0.0 
462.833344 0.0 
462.916687 0.0 
463.0 0.0 
463.083344 0.0 
463.166687 0.0 
463.25 0.0 
463.333344 0.0 
463.416687 0.0 
463.5 0.0 
463.583344 0.0 
463.666687 0.0 
463.75 0.0 
463.833344 0.0 
463.916687 0.0 
464.0 0.0 
464.083344 0.0 
464.166687 0.0 
464.25 0.0 
464.333344 0.0 
464.416687 0.0 
464.5 0.0 
464.583344 0.0 
464.666687 0.0 
464.75 0.0 
464.833344 0.0 
464.916687 0.0 
465.0 0.0 
465.083344 0.0 
465.166687 0.0 
465.25 0.0 
465.333344 0.0 
465.416687 0.0 
465.75 0.939874 
465.916687 1.203173 
467.166687 2647.5896 
468.166687 368.013794 
468.916687 0.0 
469.0 0.0 
469.166687 0.000646 
469.5 0.0 
469.666687 0.0 
470.0 0.0 
470.083344 0.0 
470.25 0.0 
470.583344 0.0 
470.75 0.0 
471.083344 0.0 
471.166687 0.0 
471.333344 0.0 
471.666687 0.0 
471.833344 0.0 
472.166687 0.0 
472.416687 0.0 
472.75 0.0 
472.916687 0.0 
473.25 0.0 
473.5 0.0 
473.75 0.0 
473.833344 0.0 
473.916687 0.0 
474.0 0.0 
474.083344 0.0 
474.166687 0.0 
474.25 0.0 
474.333344 0.0 
474.416687 0.0 
474.5 0.0 
474.583344 0.0 
474.666687 0.0 
474.75 0.0 
474.833344 0.0 
474.916687 0.0 
475.0 0.0 
475.083344 0.0 
475.166687 0.0 
475.25 0.0 
475.333344 0.0 
475.416687 0.0 
475.5 0.0 
475.583344 0.0 
475.666687 0.0 
475.75 0.0 
475.833344 0.0 
475.916687 0.0 
476.0 0.0 
476.083344 0.0 
476.166687 0.0 
476.25 0.0 
476.333344 0.0 
476.416687 0.0 
476.5 0.0 
476.583344 0.0 
476.666687 0.0 
476.75 0.0 
476.833344 0.0 
476.916687 0.0 
477.0 0.0 
477.083344 0.0 
477.166687 0.0 
477.25 0.0 
477.333344 0.0 
477.416687 0.0 
477.5 0.0 
477.583344 0.0 
477.666687 0.0 
477.75 0.0 
477.833344 0.0 
477.916687 0.0 
478.0 0.0 
478.083344 0.0 
478.166687 0.0 
478.25 0.0 
478.333344 0.0 
478.416687 0.0 
478.5 0.0 
478.583344 0.0 
478.666687 0.0 
478.75 0.0 
478.833344 0.0 
478.916687 0.0 
479.0 0.0 
479.083344 0.0 
479.166687 0.0 
479.25 0.0 
479.333344 0.0 
479.416687 0.0 
479.5 0.0 
479.583344 0.0 
479.666687 0.0 
479.75 0.0 
479.833344 0.0 
479.916687 0.0 
480.0 0.0 
480.083344 0.0 
480.333344 1.538793 
480.583344 1.678178 
480.916687 0.0 
481.083344 9.1e-05 
481.416687 0.0 
481.5 0.0 
481.666687 0.0 
482.0 0.0 
482.166687 0.0 
482.5 0.0 
482.583344 0.0 
482.75 0.0 
483.083344 0.762273 
483.416687 0.0 
483.583344 5.2e-05 
483.916687 0.0 
484.0 0.0 
484.166687 0.0 
484.5 0.0 
484.666687 0.0 
485.0 0.0 
485.25 0.0 
485.583344 0.0 
485.75 0.0 
486.083344 0.0 
486.333344 0.0 
486.666687 0.0 
486.833344 0.0 
487.166687 0.0 
487.416687 0.0 
487.833344 4.376379 
488.25 8.174109 
488.75 0.0 
489.0 0.000257 
489.333344 0.0 
489.5 0.0 
489.833344 0.0 
490.083344 0.0 
490.416687 0.0 
490.583344 0.0 
490.916687 0.0 
491.083344 0.0 
491.416687 0.0 
491.5 0.0 
491.666687 0.0 
492.0 0.0 
492.166687 0.0 
492.5 0.0 
492.583344 0.0 
492.75 0.0 
493.083344 0.0 
493.25 0.0 
493.583344 0.0 
493.666687 0.0 
493.75 0.0 
493.833344 0.0 
493.916687 0.0 
494.0 0.0 
494.083344 0.0 
494.166687 0.0 
494.25 0.0 
494.333344 0.0 
494.416687 0.0 
494.5 0.0 
494.583344 0.0 
494.666687 0.0 
494.75 0.0 
494.833344 0.0 
494.916687 0.0 
495.0 0.0 
495.083344 0.0 
495.166687 0.0 
495.25 0.0 
495.333344 0.0 
495.416687 0.0 
495.5 0.0 
495.583344 0.0 
495.666687 0.0 
495.75 0.0 
495.833344 0.0 
495.916687 0.0 
496.0 0.0 
496.083344 0.0 
496.166687 0.0 
496.25 0.0 
496.333344 0.0 
496.416687 0.0 
496.5 0.0 
496.583344 0.0 
496.666687 0.0 
496.75 0.0 
496.833344 0.0 
496.916687 0.0 
497.0 0.0 
497.083344 0.0 
497.166687 0.0 
497.25 0.0 
497.333344 0.0 
497.416687 0.0 
497.5 0.0 
497.583344 0.0 
497.666687 0.0 
497.75 0.0 
497.833344 0.0 
498.166687 1.139877 
498.5 0.0 
498.666687 5.6e-05 
499.083344 0.0 
499.25 0.0 
499.583344 0.0 
499.75 0.0 
500.083344 0.0 
500.166687 0.0 
500.333344 0.0 
500.666687 0.0 
500.833344 0.0 
501.166687 0.0 
501.25 0.0 
501.416687 0.0 
501.75 0.0 
501.916687 0.0 
502.25 0.0 
502.5 0.0 
502.833344 0.0 
503.0 0.0 
503.25 0.0 
503.333344 0.0 
503.583344 0.645985 
503.916687 0.0 
504.0 0.0 
504.166687 4.5e-05 
504.5 0.0 
504.666687 0.0 
505.0 0.0 
505.083344 0.0 
505.25 0.0 
505.583344 0.0 
505.75 0.0 
506.083344 0.0 
506.333344 0.0 
506.666687 0.0 
506.833344 0.0 
507.166687 0.0 
507.416687 0.0 
507.75 0.0 
507.916687 0.0 
508.25 0.0 
508.5 0.0 
508.666687 0.0 
508.75 0.0 
508.833344 0.0 
508.916687 0.0 
509.0 0.0 
509.083344 0.0 
509.166687 0.0 
509.25 0.0 
509.333344 0.0 
509.416687 0.0 
509.5 0.0 
509.583344 0.0 
509.666687 0.0 
509.75 0.0 
509.833344 0.0 
509.916687 0.0 
510.0 0.0 
510.083344 0.0 
510.166687 0.0 
510.25 0.0 
510.333344 0.0 
510.416687 0.0 
510.5 0.0 
510.583344 0.0 
510.666687 0.0 
510.75 0.0 
510.833344 0.0 
510.916687 0.0 
511.0 0.0 
511.083344 0.0 
511.333344 1.301994 
511.666687 0.0 
511.833344 8.3e-05 
512.166687 0.0 
512.25 0.0 
512.416687 0.0 
512.75 0.0 
512.916687 0.0 
513.25 0.0 
513.333313 0.0 
513.5 0.0 
513.833313 0.0 
514.0 0.0 
514.333313 0.0 
514.583313 0.0 
514.916687 0.0 
515.083313 0.0 
515.416687 0.0 
515.666687 0.0 
516.0 0.0 
516.166687 0.0 
516.416687 0.0 
516.5 0.0 
516.583313 0.0 
516.666687 0.0 
516.75 0.0 
516.833313 0.0 
516.916687 0.0 
517.0 0.0 
517.083313 0.0 
517.166687 0.0 
517.25 0.0 
517.333313 0.0 
517.416687 0.0 
517.5 0.0 
517.583313 0.0 
517.666687 0.0 
517.75 0.0 
517.833313 0.0 
517.916687 0.0 
518.0 0.0 
518.083313 0.0 
518.166687 0.0 
518.25 0.0 
518.333313 0.0 
518.416687 0.0 
518.5 0.0 
518.583313 0.0 
518.666687 0.0 
518.75 0.0 
518.833313 0.0 
518.916687 0.0 
519.0 0.0 
519.083313 0.0 
519.166687 0.0 
519.25 0.0 
519.333313 0.0 
519.416687 0.0 
519.5 0.0 
519.583313 0.0 
519.666687 0.0 
519.75 0.0 
519.833313 0.0 
519.916687 0.0 
520.0 0.0 
520.083313 0.0 
520.166687 0.0 
520.25 0.0 
520.333313 0.0 
520.416687 0.0 
520.5 0.0 
520.583313 0.0 
520.666687 0.0 
520.75 0.0 
520.833313 0.0 
520.916687 0.0 
521.0 0.0 
521.083313 0.0 
521.166687 0.0 
521.25 0.0 
521.333313 0.0 
521.416687 0.0 
521.5 0.0 
521.583313 0.0 
521.666687 0.0 
521.75 0.0 
521.833313 0.0 
521.916687 0.0 
522.0 0.0 
522.083313 0.0 
522.166687 0.0 
522.25 0.0 
522.333313 0.0 
522.416687 0.0 
522.5 0.0 
522.583313 0.0 
522.666687 0.0 
522.75 0.0 
522.833313 0.0 
522.916687 0.0 
523.0 0.0 
523.083313 0.0 
523.166687 0.0 
523.25 0.0 
523.333313 0.0 
523.416687 0.0 
523.5 0.0 
523.583313 0.0 
523.666687 0.0 
523.75 0.0 
523.833313 0.0 
523.916687 0.0 
524.0 0.0 
524.083313 0.0 
524.166687 0.0 
524.25 0.0 
524.333313 0.0 
524.416687 0.0 
524.5 0.0 
524.583313 0.0 
524.666687 0.0 
524.75 0.0 
524.833313 0.0 
524.916687 0.0 
525.0 0.0 
525.083313 0.0 
525.166687 0.0 
525.25 0.0 
525.333313 0.0 
525.416687 0.0 
525.5 0.0 
525.583313 0.0 
525.666687 0.0 
525.75 0.0 
525.833313 0.0 
525.916687 0.0 
526.0 0.0 
526.083313 0.0 
526.166687 0.0 
526.25 0.0 
526.333313 0.0 
526.416687 0.0 
526.5 0.0 
526.583313 0.0 
526.666687 0.0 
526.75 0.0 
526.833313 0.0 
526.916687 0.0 
527.0 0.0 
527.083313 0.0 
527.166687 0.0 
527.25 0.0 
527.333313 0.0 
527.416687 0.0 
527.5 0.0 
527.583313 0.0 
527.666687 0.0 
527.75 0.0 
527.833313 0.0 
527.916687 0.0 
528.0 0.0 
528.083313 0.0 
528.166687 0.0 
528.25 0.0 
528.333313 0.0 
528.416687 0.0 
528.5 0.0 
528.583313 0.0 
528.666687 0.0 
528.75 0.0 
528.833313 0.0 
528.916687 0.0 
529.0 0.0 
529.083313 0.0 
529.166687 0.0 
529.25 0.0 
529.333313 0.0 
529.416687 0.0 
529.5 0.0 
529.583313 0.0 
529.666687 0.0 
529.75 0.0 
529.833313 0.0 
529.916687 0.0 
530.0 0.0 
530.083313 0.0 
530.333313 0.905087 
530.666687 0.0 
530.916687 4.5e-05 
531.25 0.0 
531.416687 0.0 
531.75 0.0 
531.916687 0.0 
532.25 0.0 
532.333313 0.0 
532.5 0.0 
532.833313 0.0 
533.0 0.0 
533.333313 0.0 
533.416687 0.0 
533.583313 0.0 
533.916687 3.09681 
534.25 0.793414 
534.583313 0.0 
534.75 6.7e-05 
535.083313 0.0 
535.333313 0.0 
535.666687 0.0 
535.833313 0.0 
536.166687 0.0 
536.416687 0.0 
536.75 0.0 
537.083313 5.056298 
537.333313 2.467561 
537.666687 0.0 
537.833313 0.00013 
538.25 0.0 
538.416687 0.0 
538.75 0.0 
538.916687 0.0 
539.25 0.0 
539.333313 0.0 
539.5 0.0 
539.833313 0.0 
540.0 0.0 
540.333313 0.0 
540.416687 0.0 
540.583313 0.0 
540.916687 0.0 
541.083313 0.0 
541.416687 0.0 
541.666687 0.0 
542.0 0.0 
542.166687 0.0 
542.416687 0.0 
542.5 0.0 
542.583313 0.0 
542.833313 1.797235 
543.416687 4.880926 
543.833313 0.0 
544.0 0.00026 
544.333313 0.0 
544.583313 0.0 
544.916687 0.0 
545.083313 0.0 
545.416687 0.0 
545.666687 0.0 
546.0 0.0 
546.166687 0.0 
546.5 0.0 
546.666687 0.0 
547.0 0.0 
547.083313 0.0 
547.25 0.0 
547.5 2.468725 
547.833313 0.0 
548.083313 0.000148 
548.416687 0.0 
548.583313 0.0 
548.916687 0.0 
549.166687 0.0 
549.5 0.0 
549.666687 0.0 
550.0 0.0 
550.166687 0.0 
550.583313 0.0 
550.75 0.0 
551.083313 0.0 
551.25 0.0 
551.583313 0.0 
551.666687 0.0 
551.833313 0.0 
552.166687 0.0 
552.333313 0.0 
552.583313 0.0 
552.666687 0.0 
552.75 0.0 
552.833313 0.0 
552.916687 0.0 
553.0 0.0 
553.083313 0.0 
553.166687 0.0 
553.25 0.0 
553.333313 0.0 
553.416687 0.0 
553.5 0.0 
553.583313 0.0 
553.666687 0.0 
553.75 0.0 
553.833313 0.0 
553.916687 0.0 
554.166687 2.095715 
554.416687 0.547273 
554.75 0.0 
555.0 3.6e-05 
555.333313 0.0 
555.5 0.0 
555.833313 0.0 
556.083313 0.0 
556.416687 0.0 
556.583313 0.0 
556.916687 0.0 
557.083313 0.0 
557.5 0.0 
557.666687 0.0 
558.0 0.0 
558.25 0.913012 
558.583313 0.0 
558.666687 0.0 
558.833313 6.3e-05 
559.166687 0.0 
559.333313 0.0 
559.666687 0.0 
559.75 0.0 
559.916687 0.0 
560.25 0.0 
560.416687 0.0 
560.75 0.0 
561.0 0.0 
561.333313 0.0 
561.5 0.0 
561.833313 0.0 
562.083313 0.0 
562.416687 0.0 
562.583313 0.0 
562.916687 0.0 
563.083313 0.0 
563.333313 0.0 
563.416687 0.0 
563.5 0.0 
563.583313 0.0 
563.666687 0.0 
563.75 0.0 
563.833313 0.0 
563.916687 0.0 
564.0 0.0 
564.083313 0.0 
564.166687 0.0 
564.25 0.0 
564.333313 0.0 
564.416687 0.0 
564.5 0.0 
564.583313 0.0 
564.666687 0.0 
564.75 0.0 
564.833313 0.0 
564.916687 0.0 
565.0 0.0 
565.333313 0.622146 
565.666687 0.0 
565.833313 5.3e-05 
566.166687 0.0 
566.416687 0.0 
566.75 0.0 
566.916687 0.0 
567.25 0.0 
567.5 0.0 
567.833313 0.0 
568.0 0.0 
568.333313 0.0 
568.5 0.0 
568.833313 0.0 
568.916687 0.0 
569.083313 0.0 
569.416687 0.0 
569.583313 0.0 
569.916687 0.0 
570.0 0.0 
570.166687 0.0 
570.333313 0.0 
570.416687 0.0 
570.5 0.0 
570.583313 0.0 
570.666687 0.0 
570.75 0.0 
570.833313 0.0 
570.916687 0.0 
571.0 0.0 
571.083313 0.0 
571.166687 0.0 
571.25 0.0 
571.333313 0.0 
571.416687 0.0 
571.5 0.0 
571.583313 0.0 
571.666687 0.0 
571.75 0.0 
571.833313 0.0 
571.916687 0.0 
572.0 0.0 
572.083313 0.0 
572.166687 0.0 
572.25 0.0 
572.333313 0.0 
572.416687 0.0 
572.5 0.0 
572.583313 0.0 
572.666687 0.0 
572.75 0.0 
572.833313 0.0 
572.916687 0.0 
573.0 0.0 
573.083313 0.0 
573.166687 0.0 
573.25 0.0 
573.333313 0.0 
573.416687 0.0 
573.5 0.0 
573.583313 0.0 
573.666687 0.0 
573.75 0.0 
573.833313 0.0 
573.916687 0.0 
574.0 0.0 
574.083313 0.0 
574.166687 0.0 
574.25 0.0 
574.333313 0.0 
574.416687 0.0 
574.5 0.0 
574.583313 0.0 
574.666687 0.0 
574.75 0.0 
574.833313 0.0 
574.916687 0.0 
575.0 0.0 
575.083313 0.0 
575.166687 0.0 
575.25 0.0 
575.333313 0.0 
575.416687 0.0 
575.5 0.0 
575.583313 0.0 
575.666687 0.0 
575.75 0.0 
575.833313 0.0 
575.916687 0.0 
576.0 0.0 
576.083313 0.0 
576.166687 0.0 
576.25 0.0 
576.333313 0.0 
576.416687 0.0 
576.5 0.0 
576.583313 0.0 
576.666687 0.0 
576.75 0.0 
576.833313 0.0 
576.916687 0.0 
577.0 0.0 
577.083313 0.0 
577.166687 0.0 
577.25 0.0 
577.333313 0.0 
577.416687 0.0 
577.5 0.0 
577.583313 0.0 
577.666687 0.0 
577.75 0.0 
577.833313 0.0 
577.916687 0.0 
578.0 0.0 
578.083313 0.0 
578.166687 0.0 
578.25 0.0 
578.333313 0.0 
578.416687 0.0 
578.5 0.0 
578.583313 0.0 
578.666687 0.0 
578.75 0.0 
578.833313 0.0 
578.916687 0.0 
579.0 0.0 
579.083313 0.0 
579.166687 0.0 
579.25 0.0 
579.333313 0.0 
579.416687 0.0 
579.5 0.0 
579.583313 0.0 
579.666687 0.0 
579.75 0.0 
579.833313 0.0 
579.916687 0.0 
580.0 0.0 
580.083313 0.0 
580.166687 0.0 
580.25 0.0 
580.333313 0.0 
580.416687 0.0 
580.5 0.0 
580.583313 0.0 
580.666687 0.0 
580.75 0.0 
580.833313 0.0 
580.916687 0.0 
581.0 0.0 
581.083313 0.0 
581.166687 0.0 
581.25 0.0 
581.333313 0.0 
581.416687 0.0 
581.5 0.0 
581.583313 0.0 
581.666687 0.0 
581.75 0.0 
581.833313 0.0 
581.916687 0.0 
582.0 0.0 
582.333313 4.478916 
582.666687 0.0 
582.916687 0.000221 
583.25 0.0 
583.416687 0.0 
583.75 0.0 
583.916687 0.0 
584.25 0.0 
584.333313 0.0 
584.5 0.0 
584.833313 0.0 
585.25 1.297087 
585.5 5.323975 
586.25 206.991837 
587.0 0.0 
587.083374 0.0 
587.25 0.000483 
587.583374 0.0 
587.75 0.0 
588.083374 0.0 
588.333374 0.0 
588.666687 0.0 
588.833374 0.0 
589.166687 0.0 
589.416687 0.0 
589.75 0.0 
589.916687 0.0 
590.25 0.0 
590.416687 0.0 
590.75 0.0 
590.833374 0.0 
591.0 0.0 
591.333374 0.0 
591.5 0.0 
591.833374 0.0 
591.916687 0.0 
592.0 0.0 
592.083374 0.0 
592.166687 0.0 
592.25 0.0 
592.333374 0.0 
592.416687 0.0 
592.5 0.0 
592.583374 0.0 
592.666687 0.0 
592.75 0.0 
592.833374 0.0 
592.916687 0.0 
593.0 0.0 
593.083374 0.0 
593.166687 0.0 
593.25 0.0 
593.333374 0.0 
593.416687 0.0 
593.5 0.0 
593.583374 0.0 
593.666687 0.0 
594.166687 5.83551 
594.75 0.0 
595.0 0.000118 
595.333374 0.0 
595.5 0.0 
595.833374 0.0 
596.166687 0.381141 
596.5 0.0 
596.666687 3.7e-05 
597.0 0.0 
597.25 0.0 
597.583374 0.0 
597.75 0.0 
598.083374 0.0 
598.25 0.0 
598.583374 0.0 
598.666687 0.0 
598.833374 0.0 
599.083374 2.108923 
599.416687 0.0 
599.5 0.0 
599.666687 0.000153 
600.0 0.0 
600.166687 0.0 
600.5 0.0 
600.583374 0.0 
600.75 0.0 
601.083374 0.0 
601.25 0.0 
601.583374 0.0 
601.666687 0.0 
601.833374 0.0 
602.166687 0.0 
602.333374 0.0 
602.666687 0.0 
602.916687 0.0 
603.333374 0.323807 
603.75 3.362348 
603.916687 2.214634 
604.166687 9.932862 
604.416687 9.810589 
604.75 0.0 
605.0 0.000508 
605.333374 0.0 
605.5 0.0 
605.833374 0.0 
606.083374 0.0 
606.416687 0.0 
606.583374 0.0 
607.083374 1.136414 
607.416687 0.0 
607.666687 5.6e-05 
608.0 0.0 
608.166687 0.0 
608.5 0.0 
608.666687 0.0 
609.0 0.0 
609.083374 0.0 
609.25 0.0 
609.583374 0.0 
609.75 0.0 
610.083374 0.0 
610.166687 0.0 
610.333374 0.0 
610.666687 0.0 
610.833374 0.0 
611.166687 0.0 
611.25 0.0 
611.416687 0.0 
611.75 0.0 
611.916687 0.0 
612.166687 0.0 
612.25 0.0 
612.333374 0.0 
612.416687 0.0 
612.5 0.0 
612.583374 0.0 
612.666687 0.0 
612.75 0.0 
612.833374 0.0 
612.916687 0.0 
613.0 0.0 
613.083374 0.0 
613.166687 0.0 
613.25 0.0 
613.333374 0.0 
613.416687 0.0 
613.5 0.0 
613.583374 0.0 
613.666687 0.0 
613.75 0.0 
613.833374 0.0 
614.083374 0.653878 
614.416687 0.0 
614.5 0.0 
614.666687 4.2e-05 
615.0 0.0 
615.166687 0.0 
615.5 0.0 
615.583374 0.0 
615.75 0.0 
616.083374 0.0 
616.25 0.0 
616.583374 0.0 
616.833374 0.0 
617.166687 0.0 
617.333374 0.0 
617.666687 0.0 
617.916687 0.0 
618.25 0.0 
618.416687 0.0 
618.75 0.0 
619.0 0.0 
619.166687 0.0 
619.25 0.0 
619.333374 0.0 
619.416687 0.0 
619.5 0.0 
619.583374 0.0 
619.666687 0.0 
619.75 0.0 
619.833374 0.0 
619.916687 0.0 
620.0 0.0 
620.083374 0.0 
620.166687 0.0 
620.25 0.0 
620.333374 0.0 
620.416687 0.0 
620.5 0.0 
620.583374 0.0 
620.666687 0.0 
620.75 0.0 
620.833374 0.0 
620.916687 0.0 
621.0 0.0 
621.083374 0.0 
621.166687 0.0 
621.25 0.0 
621.333374 0.0 
621.416687 0.0 
621.5 0.0 
621.583374 0.0 
621.666687 0.0 
621.75 0.0 
621.833374 0.0 
621.916687 0.0 
622.0 0.0 
622.083374 0.0 
622.166687 0.0 
622.25 0.0 
622.333374 0.0 
622.416687 0.0 
622.5 0.0 
622.583374 0.0 
622.666687 0.0 
622.75 0.0 
622.833374 0.0 
622.916687 0.0 
623.0 0.0 
623.083374 0.0 
623.166687 0.0 
623.25 0.0 
623.333374 0.0 
623.416687 0.0 
623.5 0.0 
623.583374 0.0 
623.666687 0.0 
623.75 0.0 
623.833374 0.0 
623.916687 0.0 
624.0 0.0 
624.083374 0.0 
624.166687 0.0 
624.25 0.0 
624.333374 0.0 
624.416687 0.0 
624.5 0.0 
624.583374 0.0 
624.666687 0.0 
624.75 0.0 
624.833374 0.0 
624.916687 0.0 
625.0 0.0 
625.083374 0.0 
625.166687 0.0 
625.25 0.0 
625.5 2.439777 
625.833374 0.0 
626.0 0.000138 
626.333374 0.0 
626.416687 0.0 
626.583374 0.0 
626.916687 0.0 
627.083374 0.0 
627.416687 0.0 
627.5 0.0 
627.666687 0.0 
628.0 0.0 
628.166687 0.0 
628.5 0.0 
628.583374 0.0 
628.75 0.0 
629.083374 0.0 
629.25 0.0 
629.583374 0.0 
629.833374 0.0 
630.166687 0.0 
630.333374 0.0 
630.583374 0.0 
630.666687 0.0 
630.75 0.0 
630.833374 0.0 
630.916687 0.0 
631.0 0.0 
631.083374 0.0 
631.166687 0.0 
631.25 0.0 
631.333374 0.0 
631.416687 0.0 
631.5 0.0 
631.583374 0.0 
631.666687 0.0 
631.75 0.0 
632.083374 2.794966 
632.416687 5.332321 
632.833374 0.0 
633.0 0.000358 
633.333374 0.0 
633.583374 0.0 
633.916687 0.0 
634.083374 0.0 
634.416687 0.0 
634.666687 0.0 
635.0 0.0 
635.166687 0.0 
635.5 0.0 
635.666687 0.0 
636.0 0.0 
636.083374 0.0 
636.25 0.0 
636.583374 0.0 
636.75 0.0 
637.083374 0.0 
637.166687 0.0 
637.333374 0.0 
637.583374 0.0 
637.666687 0.0 
637.75 0.0 
637.833374 0.0 
637.916687 0.0 
638.0 0.0 
638.083374 0.0 
638.166687 0.0 
638.25 0.0 
638.333374 0.0 
638.416687 0.0 
638.5 0.0 
638.583374 0.0 
638.666687 0.0 
638.75 0.0 
638.833374 0.0 
638.916687 0.0 
639.0 0.0 
639.083374 0.0 
639.166687 0.0 
639.25 0.0 
639.333374 0.0 
639.416687 0.0 
639.5 0.0 
639.583374 0.0 
639.666687 0.0 
639.75 0.0 
639.833374 0.0 
639.916687 0.0 
640.0 0.0 
640.083374 0.0 
640.166687 0.0 
640.25 0.0 
640.333374 0.0 
640.416687 0.0 
640.5 0.0 
640.583374 0.0 
640.666687 0.0 
640.75 0.0 
640.833374 0.0 
640.916687 0.0 
641.0 0.0 
641.083374 0.0 
641.166687 0.0 
641.25 0.0 
641.333374 0.0 
641.416687 0.0 
641.5 0.0 
641.583374 0.0 
641.666687 0.0 
641.75 0.0 
641.833374 0.0 
641.916687 0.0 
642.0 0.0 
642.083374 0.0 
642.166687 0.0 
642.25 0.0 
642.333374 0.0 
642.416687 0.0 
642.5 0.0 
642.583374 0.0 
642.666687 0.0 
642.75 0.0 
642.833374 0.0 
642.916687 0.0 
643.0 0.0 
643.083374 0.0 
643.166687 0.0 
643.25 0.0 
643.333374 0.0 
643.416687 0.0 
643.5 0.0 
643.583374 0.0 
643.666687 0.0 
643.75 0.0 
643.833374 0.0 
643.916687 0.0 
644.0 0.0 
644.083374 0.0 
644.166687 0.0 
644.25 0.0 
644.333374 0.0 
644.416687 0.0 
644.5 0.0 
644.583374 0.0 
644.666687 0.0 
644.75 0.0 
644.833374 0.0 
644.916687 0.0 
645.0 0.0 
645.083374 0.0 
645.166687 0.0 
645.25 0.0 
645.333374 0.0 
645.416687 0.0 
645.5 0.0 
645.583374 0.0 
645.666687 0.0 
645.75 0.0 
645.833374 0.0 
645.916687 0.0 
646.0 0.0 
646.083374 0.0 
646.166687 0.0 
646.25 0.0 
646.333374 0.0 
646.416687 0.0 
646.5 0.0 
646.583374 0.0 
646.666687 0.0 
646.75 0.0 
646.833374 0.0 
646.916687 0.0 
647.0 0.0 
647.083374 0.0 
647.166687 0.0 
647.25 0.0 
647.333374 0.0 
647.416687 0.0 
647.5 0.0 
647.583374 0.0 
647.666687 0.0 
647.75 0.0 
647.833374 0.0 
647.916687 0.0 
648.0 0.0 
648.083374 0.0 
648.166687 0.0 
648.25 0.0 
648.333374 0.0 
648.416687 0.0 
648.5 0.0 
648.583374 0.0 
648.666687 0.0 
648.75 0.0 
648.833374 0.0 
648.916687 0.0 
649.0 0.0 
649.083374 0.0 
649.166687 0.0 
649.25 0.0 
649.333374 0.0 
649.416687 0.0 
649.5 0.0 
649.583374 0.0 
649.666687 0.0 
649.75 0.0 
649.833374 0.0 
649.916687 0.0 
650.0 0.0 
650.083374 0.0 
650.166687 0.0 
650.25 0.0 
650.333374 0.0 
650.416687 0.0 
650.5 0.0 
650.583374 0.0 
650.666687 0.0 
650.75 0.0 
650.833374 0.0 
650.916687 0.0 
651.0 0.0 
651.083374 0.0 
651.166687 0.0 
651.25 0.0 
651.333374 0.0 
651.416687 0.0 
651.5 0.0 
651.583374 0.0 
651.666687 0.0 
651.75 0.0 
651.833374 0.0 
651.916687 0.0 
652.0 0.0 
652.083374 0.0 
652.166687 0.0 
652.25 0.0 
652.333374 0.0 
652.416687 0.0 
652.5 0.0 
652.583374 0.0 
652.666687 0.0 
652.75 0.0 
652.833374 0.0 
652.916687 0.0 
653.0 0.0 
653.25 2.739245 
653.583374 0.0 
653.666687 0.0 
653.833374 0.000176 
654.166687 0.0 
654.333374 0.0 
654.666687 0.0 
654.75 0.0 
654.916687 0.0 
655.25 0.0 
655.416687 0.0 
655.75 0.0 
656.0 0.0 
656.333374 0.0 
656.5 0.0 
656.833374 0.0 
657.083374 0.0 
657.416687 0.0 
657.583374 0.0 
657.916687 0.0 
658.166687 0.0 
658.416687 0.0 
658.5 0.0 
658.583374 0.0 
658.666687 0.0 
658.75 0.0 
658.833374 0.0 
658.916687 0.0 
659.0 0.0 
659.083374 0.0 
659.166687 0.0 
659.25 0.0 
659.333374 0.0 
659.416687 0.0 
659.5 0.0 
659.583374 0.0 
659.666687 0.0 
659.75 0.0 
659.833374 0.0 
659.916687 0.0 
660.0 0.0 
660.083374 0.0 
660.166687 0.0 
660.25 0.0 
660.333374 0.0 
660.416687 0.0 
660.5 0.0 
660.583374 0.0 
660.666687 0.0 
660.75 0.0 
660.833374 0.0 
660.916687 0.0 
661.0 0.0 
661.083374 0.0 
661.166687 0.0 
661.25 0.0 
661.333374 0.0 
661.416687 0.0 
661.5 0.0 
661.583374 0.0 
661.666687 0.0 
661.75 0.0 
661.833374 0.0 
661.916687 0.0 
662.0 0.0 
662.083374 0.0 
662.166687 0.0 
662.25 0.0 
662.333374 0.0 
662.416687 0.0 
662.5 0.0 
662.583374 0.0 
662.666687 0.0 
662.75 0.0 
662.833374 0.0 
662.916687 0.0 
663.0 0.0 
663.083374 0.0 
663.166687 0.0 
663.25 0.0 
663.333374 0.0 
663.416687 0.0 
663.5 0.0 
663.583374 0.0 
663.666687 0.0 
663.75 0.0 
663.833374 0.0 
663.916687 0.0 
664.0 0.0 
664.083374 0.0 
664.166687 0.0 
664.25 0.0 
664.333374 0.0 
664.416687 0.0 
664.5 0.0 
664.583374 0.0 
664.666687 0.0 
664.75 0.0 
664.833374 0.0 
664.916687 0.0 
665.0 0.0 
665.083374 0.0 
665.166687 0.0 
665.25 0.0 
665.333374 0.0 
665.416687 0.0 
665.5 0.0 
665.583374 0.0 
665.666687 0.0 
665.75 0.0 
665.833374 0.0 
665.916687 0.0 
666.166687 1.143482 
666.583374 0.0 
666.75 9.1e-05 
667.083374 0.0 
667.333374 0.0 
667.666687 0.0 
667.833374 0.0 
668.166687 0.0 
668.416687 0.0 
668.75 0.0 
668.916687 0.0 
669.25 0.0 
669.416687 0.0 
669.75 0.0 
669.833374 0.0 
670.0 0.0 
670.333374 0.0 
670.5 0.0 
670.75 2.551852 
671.0 6.368876 
671.416687 0.0 
671.583374 0.000303 
671.916687 0.0 
672.0 0.0 
672.416687 0.375057 
672.75 0.0 
672.916687 3e-05 
673.416687 0.820324 
673.75 0.0 
673.916687 5.1e-05 
674.25 0.0 
674.333374 0.0 
674.5 0.0 
674.833374 0.0 
675.0 0.0 
675.333374 0.0 
675.416687 0.0 
675.583374 0.0 
675.916687 0.0 
676.083374 0.0 
676.416687 0.0 
676.666687 0.0 
677.0 0.0 
677.166687 0.0 
677.5 0.0 
677.75 0.0 
678.083374 0.0 
678.25 0.0 
678.5 0.0 
678.583374 0.0 
678.666687 0.0 
678.75 0.0 
678.833374 0.0 
678.916687 0.0 
679.0 0.0 
679.083374 0.0 
679.166687 0.0 
679.25 0.0 
679.333374 0.0 
679.416687 0.0 
679.5 0.0 
679.583374 0.0 
679.666687 0.0 
679.75 0.0 
679.833374 0.0 
679.916687 0.0 
680.0 0.0 
680.083374 0.0 
680.166687 0.0 
680.25 0.0 
680.333374 0.0 
680.416687 0.0 
680.5 0.0 
680.583374 0.0 
680.666687 0.0 
680.75 0.0 
681.083374 6.433745 
681.666687 0.0 
681.833374 0.00017 
682.166687 0.0 
682.333374 0.0 
682.75 0.0 
682.916687 0.0 
683.25 0.0 
683.416687 0.0 
683.75 0.0 
683.833374 0.0 
684.0 0.0 
684.333374 0.0 
684.5 0.0 
684.833374 0.0 
684.916687 0.0 
685.083374 0.0 
685.416687 0.0 
685.583374 0.0 
685.916687 0.0 
686.0 0.0 
686.166687 0.0 
686.416687 0.0 
686.5 0.0 
686.583374 0.0 
686.666687 0.0 
686.75 0.0 
686.833374 0.0 
686.916687 0.0 
687.0 0.0 
687.083374 0.0 
687.166687 0.0 
687.25 0.0 
687.333374 0.0 
687.416687 0.0 
687.5 0.0 
687.583374 0.0 
687.666687 0.0 
687.75 0.0 
687.833374 0.0 
687.916687 0.0 
688.0 0.0 
688.083374 0.0 
688.166687 0.0 
688.25 0.0 
688.333374 0.0 
688.416687 0.0 
688.5 0.0 
688.583374 0.0 
688.666687 0.0 
688.75 0.0 
688.833374 0.0 
688.916687 0.0 
689.0 0.0 
689.083374 0.0 
689.166687 0.0 
689.25 0.0 
689.333374 0.0 
689.416687 0.0 
689.5 0.0 
689.583374 0.0 
689.666687 0.0 
689.75 0.0 
689.833374 0.0 
689.916687 0.0 
690.0 0.0 
690.083374 0.0 
690.166687 0.0 
690.25 0.0 
690.333374 0.0 
690.416687 0.0 
690.5 0.0 
690.583374 0.0 
690.666687 0.0 
690.75 0.0 
690.833374 0.0 
690.916687 0.0 
691.0 0.0 
691.083374 0.0 
691.166687 0.0 
691.25 0.0 
691.333374 0.0 
691.416687 0.0 
691.5 0.0 
691.75 0.754015 
692.083374 0.0 
692.333374 3.8e-05 
692.666687 0.0 
692.833374 0.0 
693.166687 0.0 
693.333374 0.0 
693.75 0.0 
693.916687 0.0 
694.25 0.0 
694.416687 0.0 
694.75 0.0 
694.833374 0.0 
695.0 0.0 
695.333374 4.398605 
695.75 0.0 
695.916687 0.000119 
696.166687 2.154668 
696.5 0.0 
696.75 0.000165 
697.083374 0.0 
697.25 0.0 
697.583374 0.0 
697.833374 0.0 
698.166687 0.0 
698.333374 0.0 
698.666687 0.0 
698.833374 0.0 
699.25 0.0 
699.416687 0.0 
699.75 0.0 
699.916687 0.0 
700.25 0.0 
700.333374 0.0 
700.5 0.0 
701.083374 1.393346 
701.416687 0.0 
701.583374 8.7e-05 
702.166687 10.338913 
702.583374 0.0 
702.833374 0.000381 
703.166687 0.0 
703.333374 0.0 
703.666687 0.0 
703.833374 0.0 
704.166687 0.0 
704.25 0.0 
704.416687 0.0 
704.75 0.0 
704.916687 0.0 
705.25 0.0 
705.333374 0.0 
705.5 0.0 
705.833374 0.0 
706.0 0.0 
706.333374 0.0 
706.416687 0.0 
706.583374 0.0 
706.916687 0.0 
707.083374 0.0 
707.416687 0.0 
707.5 0.0 
707.583374 0.0 
707.666687 0.0 
707.75 0.0 
707.833374 0.0 
707.916687 0.0 
708.25 2.053468 
708.666687 0.0 
708.833374 0.000157 
709.166687 0.0 
709.416687 0.0 
709.75 0.0 
709.916687 0.0 
710.25 0.0 
710.5 0.0 
710.833374 0.0 
711.0 0.0 
711.333374 0.0 
711.5 0.0 
711.833374 0.0 
711.916687 0.0 
712.083374 0.0 
712.5 1.355333 
712.916687 6.633149 
713.166687 13.035115 
713.583374 1.36818 
713.916687 0.0 
714.083374 0.000104 
714.416687 0.0 
714.5 0.0 
714.666687 0.0 
715.0 0.0 
715.166687 0.0 
715.5 0.0 
715.75 0.0 
716.083374 0.0 
716.25 0.0 
716.583374 0.0 
716.833374 0.0 
717.166687 0.0 
717.333374 0.0 
717.666687 0.0 
717.916687 0.0 
718.25 0.0 
718.416687 0.0 
718.666687 0.0 
719.0 6.212322 
719.333374 4.312186 
719.75 0.0 
719.916687 0.00026 
720.25 1.814355 
720.666687 0.0 
720.833374 0.000132 
721.166687 0.0 
721.333374 0.0 
721.666687 0.0 
721.75 0.0 
721.916687 0.0 
722.25 0.0 
722.416687 0.0 
722.75 0.0 
722.833374 0.0 
723.0 0.0 
723.333374 0.0 
723.5 0.0 
723.833374 0.0 
723.916687 0.0 
724.083374 0.0 
724.416687 0.0 
724.583374 0.0 
724.916687 0.0 
725.166687 0.0 
725.416687 0.0 
725.5 0.0 
725.583374 0.0 
725.666687 0.0 
725.75 0.0 
725.833374 0.0 
725.916687 0.0 
726.0 0.0 
726.083374 0.0 
726.166687 0.0 
726.25 0.0 
726.333374 0.0 
726.416687 0.0 
726.5 0.0 
726.583374 0.0 
726.666687 0.0 
726.75 0.0 
726.833374 0.0 
726.916687 0.0 
727.0 0.0 
727.083374 0.0 
727.166687 0.0 
727.25 0.0 
727.333374 0.0 
727.416687 0.0 
727.5 0.0 
727.583374 0.0 
727.666687 0.0 
727.75 0.0 
727.833374 0.0 
727.916687 0.0 
728.0 0.0 
728.083374 0.0 
728.166687 0.0 
728.25 0.0 
728.333374 0.0 
728.416687 0.0 
728.5 0.0 
728.583374 0.0 
728.666687 0.0 
728.75 0.0 
728.833374 0.0 
728.916687 0.0 
729.0 0.0 
729.083374 0.0 
729.166687 0.0 
729.25 0.0 
729.333374 0.0 
729.416687 0.0 
729.5 0.0 
729.583374 0.0 
729.666687 0.0 
729.75 0.0 
729.833374 0.0 
729.916687 0.0 
730.0 0.0 
730.083374 0.0 
730.166687 0.0 
730.25 0.0 
730.333374 0.0 
730.416687 0.0 
730.5 0.0 
730.583374 0.0 
730.666687 0.0 
730.75 0.0 
730.833374 0.0 
730.916687 0.0 
731.0 0.0 
731.083374 0.0 
731.166687 0.0 
731.25 0.0 
731.333374 0.0 
731.416687 0.0 
731.5 0.0 
731.583374 0.0 
731.666687 0.0 
731.75 0.0 
731.833374 0.0 
731.916687 0.0 
732.0 0.0 
732.083374 0.0 
732.166687 0.0 
732.25 0.0 
732.583374 2.883024 
733.0 5.435132 
733.25 5.790183 
733.666687 0.0 
733.75 0.0 
734.0 2.365599 
734.333374 1.536536 
734.666687 0.0 
734.833374 0.000108 
735.166687 0.0 
735.25 0.0 
735.416687 0.0 
735.75 0.0 
735.916687 0.0 
736.25 0.0 
736.5 0.0 
736.833374 0.0 
737.0 0.0 
737.333374 0.0 
737.583374 0.0 
737.916687 0.0 
738.083374 0.0 
738.416687 0.0 
738.666687 0.0 
739.0 0.0 
739.166687 0.0 
739.416687 0.0 
739.5 0.0 
739.583374 0.0 
739.666687 0.0 
739.75 0.0 
739.833374 0.0 
739.916687 0.0 
740.0 0.0 
740.083374 0.0 
740.166687 0.0 
740.25 0.0 
740.333374 0.0 
740.416687 0.0 
740.5 0.0 
740.583374 0.0 
740.666687 0.0 
740.75 0.0 
740.833374 0.0 
740.916687 0.0 
741.0 0.0 
741.083374 0.0 
741.166687 0.0 
741.25 0.0 
741.333374 0.0 
741.416687 0.0 
741.5 0.0 
741.583374 0.0 
741.666687 0.0 
741.75 0.0 
741.833374 0.0 
742.083374 1.57872 
742.416687 0.0 
742.666687 7.9e-05 
743.0 0.0 
743.166687 0.0 
743.5 0.0 
743.666687 0.0 
744.0 0.0 
744.083374 0.0 
744.25 0.0 
744.583374 0.0 
744.75 0.0 
745.083374 0.0 
745.166687 0.0 
745.333374 0.0 
745.666687 0.0 
745.833374 0.0 
746.166687 0.0 
746.25 0.0 
746.416687 0.0 
746.75 0.0 
746.916687 0.0 
747.166687 0.0 
747.25 0.0 
747.333374 0.0 
747.416687 0.0 
747.5 0.0 
747.583374 0.0 
747.666687 0.0 
747.75 0.0 
747.833374 0.0 
747.916687 0.0 
748.0 0.0 
748.083374 0.0 
748.166687 0.0 
748.25 0.0 
748.333374 0.0 
748.416687 0.0 
748.5 0.0 
748.583374 0.0 
748.666687 0.0 
748.75 0.0 
748.833374 0.0 
748.916687 0.0 
749.0 0.0 
749.083374 0.0 
749.166687 0.0 
749.25 0.0 
749.333374 0.0 
749.416687 0.0 
749.5 0.0 
749.583374 0.0 
749.666687 0.0 
749.75 0.0 
749.833374 0.0 
749.916687 0.0 
750.166687 3.598033 
751.166687 887.918701 
752.333374 5.02402 
752.75 0.0 
752.916687 0.000276 
753.25 0.0 
753.5 0.0 
753.833374 0.0 
754.0 0.0 
754.333374 0.0 
754.583374 0.0 
754.916687 0.0 
755.083374 0.0 
755.416687 0.0 
755.583374 0.0 
756.0 0.0 
756.166687 0.0 
756.5 0.0 
756.666687 0.0 
757.0 0.0 
757.083374 0.0 
757.25 0.0 
757.5 0.0 
757.583374 0.0 
757.666687 0.0 
757.75 0.0 
757.833374 0.0 
758.083374 1.461739 
758.416687 0.0 
758.666687 7.2e-05 
759.0 0.0 
759.166687 0.0 
759.5 0.0 
759.666687 0.0 
760.0 0.0 
760.083374 0.0 
760.25 0.0 
760.583374 0.0 
760.75 0.0 
761.083374 0.0 
761.166687 0.0 
761.333374 0.0 
761.666687 0.0 
761.833374 0.0 
762.166687 0.0 
762.25 0.0 
762.416687 0.0 
762.75 0.0 
762.916687 0.0 
763.166687 0.0 
763.25 0.0 
763.333374 0.0 
763.416687 0.0 
763.5 0.0 
763.583374 0.0 
763.666687 0.0 
763.75 0.0 
764.0 0.801093 
764.166687 1.091994 
764.583374 0.0 
764.75 9.3e-05 
765.083374 0.883258 
765.416687 0.0 
765.583374 6e-05 
765.916687 0.0 
766.0 0.0 
766.166687 0.0 
766.5 0.0 
766.666687 0.0 
767.0 0.0 
767.083374 0.0 
767.25 0.0 
767.583374 0.0 
767.75 0.0 
768.083374 0.0 
768.333374 0.0 
768.666687 3.597466 
769.166687 0.392691 
769.5 0.0 
770.25 16.580851 
770.416687 14.950642 
770.916687 0.0 
771.083374 0.000749 
771.416687 0.0 
771.5 0.0 
771.666687 0.0 
772.0 0.0 
772.166687 0.0 
772.5 0.0 
772.75 0.0 
773.083374 0.0 
773.25 0.0 
773.583374 0.0 
773.833374 0.0 
774.166687 0.0 
774.333374 0.0 
774.666687 0.0 
775.166687 0.45929 
775.5 0.0 
775.666687 4.2e-05 
776.0 0.0 
776.25 2.539727 
776.666687 0.0 
776.833374 0.00022 
777.166687 0.0 
777.416687 0.0 
777.75 0.0 
777.916687 0.0 
778.25 0.0 
778.416687 0.0 
778.75 0.0 
778.833374 0.0 
779.166687 0.438804 
779.5 0.0 
779.666687 3.5e-05 
780.0 0.0 
780.25 0.0 
780.583374 0.0 
780.75 0.0 
781.083374 0.0 
781.333374 0.0 
781.666687 0.0 
781.833374 0.0 
782.166687 0.0 
782.416687 0.0 
782.75 0.0 
782.916687 0.0 
783.25 0.0 
783.416687 0.0 
783.75 0.0 
783.833374 0.0 
784.0 0.0 
784.166687 0.0 
784.25 0.0 
784.333374 0.0 
784.416687 0.0 
784.5 0.0 
784.583374 0.0 
784.666687 0.0 
784.75 0.0 
784.833374 0.0 
784.916687 0.0 
785.0 0.0 
785.083374 0.0 
785.166687 0.0 
785.25 0.0 
785.333374 0.0 
785.416687 0.0 
785.5 0.0 
785.583374 0.0 
785.666687 0.0 
785.75 0.0 
785.833374 0.0 
785.916687 0.0 
786.0 0.0 
786.083374 0.0 
786.166687 0.0 
786.25 0.0 
786.333374 0.0 
786.416687 0.0 
786.5 0.0 
786.583374 0.0 
786.666687 0.0 
786.75 0.0 
786.833374 0.0 
786.916687 0.0 
787.0 0.0 
787.083374 0.0 
787.166687 0.0 
787.25 0.0 
787.333374 0.0 
787.416687 0.0 
787.5 0.0 
787.583374 0.0 
787.666687 0.0 
787.75 0.0 
787.833374 0.0 
787.916687 0.0 
788.0 0.0 
788.083374 0.0 
788.166687 0.0 
788.25 0.0 
788.333374 0.0 
788.416687 0.0 
788.5 0.0 
788.583374 0.0 
788.666687 0.0 
788.75 0.0 
788.833374 0.0 
788.916687 0.0 
789.0 0.0 
789.083374 0.0 
789.166687 0.0 
789.25 0.0 
789.333374 0.0 
789.416687 0.0 
789.5 0.0 
789.583374 0.0 
789.666687 0.0 
789.75 0.0 
789.833374 0.0 
790.083374 2.033043 
790.416687 0.0 
790.666687 0.000113 
791.0 0.0 
791.166687 0.0 
791.5 0.0 
791.75 0.0 
792.083374 0.0 
792.25 0.0 
792.583374 0.0 
792.75 0.0 
793.083374 0.0 
793.166687 0.0 
793.333374 0.0 
793.666687 0.0 
793.833374 0.0 
794.166687 0.0 
794.25 0.0 
794.416687 0.0 
794.75 0.0 
794.916687 0.0 
795.166687 0.0 
795.25 0.0 
795.333374 0.0 
795.416687 0.0 
795.5 0.0 
795.583374 0.0 
795.666687 0.0 
795.75 0.0 
795.833374 0.0 
795.916687 0.0 
796.0 0.0 
796.083374 0.0 
796.166687 0.0 
796.25 0.0 
796.583374 2.6664 
797.166687 8.600122 
797.416687 3.182679 
797.75 0.0 
797.916687 0.000221 
798.25 0.0 
798.333374 0.0 
798.5 0.0 
798.833374 0.0 
799.0 0.0 
799.333374 0.0 
799.583374 0.0 
799.916687 0.0 
800.083374 0.0 
800.416687 0.0 
800.666687 0.0 
801.0 0.0 
801.166687 0.0 
801.5 0.0 
801.75 0.0 
802.083374 0.0 
802.25 0.0 
802.5 0.0 
802.583374 0.0 
802.666687 0.0 
802.75 0.0 
802.833374 0.0 
802.916687 0.0 
803.0 0.0 
803.083374 0.0 
803.166687 0.0 
803.25 0.0 
803.333374 0.0 
803.416687 0.0 
803.5 0.0 
803.583374 0.0 
803.666687 0.0 
803.75 0.0 
803.833374 0.0 
803.916687 0.0 
804.0 0.0 
804.083374 0.0 
804.166687 0.0 
804.25 0.0 
804.333374 0.0 
804.416687 0.0 
804.5 0.0 
804.583374 0.0 
804.666687 0.0 
804.75 0.0 
804.833374 0.0 
804.916687 0.0 
805.0 0.0 
805.083374 0.0 
805.166687 0.0 
805.25 0.0 
805.333374 0.0 
805.416687 0.0 
805.5 0.0 
805.583374 0.0 
805.666687 0.0 
805.75 0.0 
805.833374 0.0 
805.916687 0.0 
806.0 0.0 
806.083374 0.0 
806.166687 0.0 
806.25 0.0 
806.333374 0.0 
806.416687 0.0 
806.5 0.0 
806.583374 0.0 
806.666687 0.0 
806.75 0.0 
806.833374 0.0 
806.916687 0.0 
807.0 0.0 
807.083374 0.0 
807.166687 0.0 
807.25 0.0 
807.333374 0.0 
807.416687 0.0 
807.5 0.0 
807.583374 0.0 
807.666687 0.0 
807.75 0.0 
807.833374 0.0 
807.916687 0.0 
808.0 0.0 
808.083374 0.0 
808.166687 0.0 
808.25 0.0 
808.333374 0.0 
808.416687 0.0 
808.5 0.0 
808.583374 0.0 
808.666687 0.0 
808.75 0.0 
808.833374 0.0 
808.916687 0.0 
809.0 0.0 
809.083374 0.0 
809.166687 0.0 
809.25 0.0 
809.333374 0.0 
809.416687 0.0 
809.5 0.0 
809.583374 0.0 
809.666687 0.0 
809.75 0.0 
809.833374 0.0 
809.916687 0.0 
810.0 0.0 
810.083374 0.0 
810.166687 0.0 
810.25 0.0 
810.333374 0.0 
810.416687 0.0 
810.5 0.0 
810.583374 0.0 
810.666687 0.0 
810.75 0.0 
810.833374 0.0 
810.916687 0.0 
811.0 0.0 
811.083374 0.0 
811.166687 0.0 
811.25 0.0 
811.333374 0.0 
811.416687 0.0 
811.5 0.0 
811.583374 0.0 
811.666687 0.0 
811.75 0.0 
811.833374 0.0 
811.916687 0.0 
812.0 0.0 
812.083374 0.0 
812.166687 0.0 
812.25 0.0 
812.333374 0.0 
812.416687 0.0 
812.5 0.0 
812.583374 0.0 
812.666687 0.0 
812.75 0.0 
812.833374 0.0 
812.916687 0.0 
813.0 0.0 
813.083374 0.0 
813.166687 0.0 
813.25 0.0 
813.333374 0.0 
813.416687 0.0 
813.5 0.0 
813.583374 0.0 
813.666687 0.0 
813.75 0.0 
813.833374 0.0 
813.916687 0.0 
814.0 0.0 
814.083374 0.0 
814.166687 0.0 
814.25 0.0 
814.666687 2.343785 
815.0 0.0 
815.25 0.000132 
815.583374 0.0 
815.75 0.0 
816.083374 0.0 
816.333374 0.0 
816.666687 0.0 
816.833374 0.0 
817.166687 0.0 
817.416687 0.0 
817.75 0.0 
817.916687 0.0 
818.25 0.0 
818.416687 0.0 
818.75 0.0 
818.833374 0.0 
819.0 0.0 
819.333374 0.0 
819.5 0.0 
819.75 0.0 
819.833374 0.0 
819.916687 0.0 
820.0 0.0 
820.083374 0.0 
820.166687 0.0 
820.25 0.0 
820.333374 0.0 
820.416687 0.0 
820.5 0.0 
820.583374 0.0 
820.666687 0.0 
820.75 0.0 
820.833374 0.0 
820.916687 0.0 
821.0 0.0 
821.083374 0.0 
821.166687 0.0 
821.25 0.0 
821.333374 0.0 
821.416687 0.0 
821.5 0.0 
821.583374 0.0 
821.666687 0.0 
821.75 0.0 
821.833374 0.0 
821.916687 0.0 
822.0 0.0 
822.083374 0.0 
822.166687 0.0 
822.25 0.0 
822.333374 0.0 
822.416687 0.0 
822.5 0.0 
822.583374 0.0 
822.666687 0.0 
822.75 0.0 
822.833374 0.0 
822.916687 0.0 
823.0 0.0 
823.083374 0.0 
823.166687 0.0 
823.25 0.0 
823.333374 0.0 
823.416687 0.0 
823.5 0.0 
823.583374 0.0 
823.666687 0.0 
823.75 0.0 
823.833374 0.0 
823.916687 0.0 
824.0 0.0 
824.083374 0.0 
824.166687 0.0 
824.25 0.0 
824.333374 0.0 
824.416687 0.0 
824.5 0.0 
824.583374 0.0 
824.666687 0.0 
824.75 0.0 
824.833374 0.0 
824.916687 0.0 
825.0 0.0 
825.083374 0.0 
825.166687 0.0 
825.25 0.0 
825.333374 0.0 
825.416687 0.0 
825.5 0.0 
825.583374 0.0 
825.666687 0.0 
825.75 0.0 
825.833374 0.0 
825.916687 0.0 
826.0 0.0 
826.083374 0.0 
826.166687 0.0 
826.25 0.0 
826.333374 0.0 
826.416687 0.0 
826.5 0.0 
826.583374 0.0 
826.666687 0.0 
826.75 0.0 
826.833374 0.0 
826.916687 0.0 
827.0 0.0 
827.083374 0.0 
827.166687 0.0 
827.25 0.0 
827.333374 0.0 
827.416687 0.0 
827.5 0.0 
827.583374 0.0 
827.666687 0.0 
827.75 0.0 
827.833374 0.0 
827.916687 0.0 
828.0 0.0 
828.083374 0.0 
828.416687 0.546634 
828.75 0.0 
828.916687 3e-05 
829.25 0.0 
829.333374 0.0 
829.5 0.0 
829.833374 0.0 
830.0 0.0 
830.333374 0.0 
830.416687 0.0 
830.583374 0.0 
830.916687 0.0 
831.083374 0.0 
831.416687 0.0 
831.5 0.0 
831.666687 0.0 
832.0 0.0 
832.166687 0.0 
832.5 0.0 
832.75 0.0 
833.083374 0.0 
833.333374 1.087044 
833.666687 0.0 
833.75 0.0 
833.916687 7.5e-05 
834.25 0.0 
834.416687 0.0 
834.75 0.0 
834.833374 0.0 
835.0 0.0 
835.333374 0.0 
835.5 0.0 
835.833374 0.0 
835.916687 0.0 
836.083374 0.0 
836.416687 0.0 
836.583374 0.0 
836.916687 0.0 
837.166687 0.0 
837.5 0.0 
837.666687 0.0 
838.0 0.0 
838.25 0.0 
838.416687 0.0 
838.5 0.0 
838.583374 0.0 
838.666687 0.0 
838.75 0.0 
838.833374 0.0 
838.916687 0.0 
839.0 0.0 
839.083374 0.0 
839.166687 0.0 
839.25 0.0 
839.333374 0.0 
839.416687 0.0 
839.5 0.0 
839.583374 0.0 
839.666687 0.0 
839.75 0.0 
839.833374 0.0 
840.083374 0.763864 
840.416687 0.0 
840.583374 4.9e-05 
840.916687 6.37184 
841.25 0.0 
841.583374 4.224689 
841.916687 0.0 
842.083374 0.000238 
842.416687 0.0 
842.5 0.0 
842.75 0.448901 
843.083374 0.0 
843.166687 0.0 
843.333374 3.3e-05 
843.666687 0.0 
843.833374 0.0 
844.166687 0.0 
844.25 0.0 
844.416687 0.0 
844.75 0.0 
844.916687 0.0 
845.25 0.0 
845.333374 0.0 
845.5 0.0 
845.833374 0.0 
846.0 0.0 
846.333374 0.0 
846.583374 0.0 
846.916687 0.0 
847.083374 0.0 
847.416687 0.0 
847.5 0.0 
847.666687 0.0 
847.833374 0.0 
847.916687 0.0 
848.0 0.0 
848.083374 0.0 
848.166687 0.0 
848.25 0.0 
848.333374 0.0 
848.416687 0.0 
848.5 0.0 
848.583374 0.0 
848.666687 0.0 
848.75 0.0 
848.833374 0.0 
848.916687 0.0 
849.0 0.0 
849.083374 0.0 
849.166687 0.0 
849.25 0.0 
849.333374 0.0 
849.416687 0.0 
849.5 0.0 
849.583374 0.0 
849.666687 0.0 
849.75 0.0 
849.833374 0.0 
849.916687 0.0 
850.0 0.0 
850.083374 0.0 
850.166687 0.0 
850.25 0.0 
850.333374 0.0 
850.416687 0.0 
850.5 0.0 
850.583374 0.0 
850.666687 0.0 
850.75 0.0 
850.833374 0.0 
850.916687 0.0 
851.0 0.0 
851.083374 0.0 
851.166687 0.0 
851.25 0.0 
851.333374 0.0 
851.416687 0.0 
851.5 0.0 
851.583374 0.0 
851.666687 0.0 
851.75 0.0 
851.833374 0.0 
851.916687 0.0 
852.0 0.0 
852.083374 0.0 
852.166687 0.0 
852.25 0.0 
852.333374 0.0 
852.416687 0.0 
852.5 0.0 
852.583374 0.0 
852.666687 0.0 
852.75 0.0 
852.833374 0.0 
852.916687 0.0 
853.0 0.0 
853.083374 0.0 
853.166687 0.0 
853.25 0.0 
853.333374 0.0 
853.416687 0.0 
853.5 0.0 
853.583374 0.0 
853.666687 0.0 
853.75 0.0 
853.833374 0.0 
853.916687 0.0 
854.0 0.0 
854.083374 0.0 
854.166687 0.0 
854.25 0.0 
854.333374 0.0 
854.416687 0.0 
854.5 0.0 
854.583374 0.0 
854.666687 0.0 
854.75 0.0 
854.833374 0.0 
855.083374 0.740244 
855.416687 0.0 
855.666687 3.6e-05 
856.0 0.0 
856.166687 0.0 
856.5 0.0 
856.666687 0.0 
856.916687 2.210831 
857.25 0.0 
857.5 0.000129 
857.833374 0.0 
858.0 0.0 
858.416687 1.51932 
858.75 0.0 
858.833374 0.0 
859.083374 1.937629 
859.416687 0.0 
859.833374 3.212927 
860.166687 0.0 
860.333374 0.000259 
860.666687 0.0 
860.916687 0.0 
861.25 0.0 
861.416687 0.0 
861.75 0.0 
862.0 0.0 
862.333374 0.0 
862.5 0.0 
862.833374 0.0 
863.083374 0.0 
863.416687 0.0 
863.583374 0.0 
863.916687 0.0 
864.083374 0.0 
864.5 7.345652 
864.833374 0.0 
865.0 0.000428 
865.333374 0.0 
865.416687 0.0 
865.583374 0.0 
865.916687 0.0 
866.083374 0.0 
866.416687 0.0 
866.5 0.0 
866.666687 0.0 
867.0 0.0 
867.166687 0.0 
867.5 0.0 
867.75 0.0 
868.083374 0.0 
868.25 0.0 
868.5 1.244791 
868.833374 0.0 
868.916687 0.0 
869.083374 8e-05 
869.416687 0.0 
869.666687 2.326869 
869.916687 2.094919 
870.25 0.0 
870.333374 0.0 
870.5 0.000141 
870.833374 0.0 
871.0 0.0 
871.333374 0.65568 
871.666687 0.0 
871.833374 4.1e-05 
872.25 2.522904 
872.583374 0.0 
872.75 0.000136 
873.166687 2.986207 
873.5 0.0 
873.583374 0.0 
873.75 0.000223 
874.166687 0.784144 
874.583374 0.0 
874.75 7.6e-05 
875.083374 2.835678 
875.416687 0.0 
875.666687 0.000156 
876.0 0.0 
876.166687 0.0 
876.5 0.0 
876.75 0.0 
877.083374 0.0 
877.166687 0.0 
877.416687 3.447873 
877.833374 0.0 
878.0 0.000247 
878.333374 0.0 
878.583374 0.0 
878.916687 0.0 
879.083374 0.0 
879.333374 1.322235 
879.916687 0.783547 
880.25 0.0 
880.416687 4.5e-05 
880.75 0.0 
880.833374 0.0 
881.0 0.0 
881.333374 0.0 
881.5 0.0 
881.833374 0.0 
881.916687 0.0 
882.083374 0.0 
882.416687 0.0 
882.583374 0.0 
882.916687 0.0 
883.0 0.0 
883.166687 0.0 
883.75 1.276092 
884.25 3.034842 
884.583374 3.284739 
884.75 5.467509 
885.166687 8.866405 
885.416687 9.204983 
885.916687 0.0 
886.083374 0.000255 
886.416687 0.0 
886.666687 0.0 
887.0 0.0 
887.166687 0.0 
887.5 0.0 
887.583374 0.0 
887.833374 0.499577 
888.166687 0.0 
888.333374 4.5e-05 
888.75 5.267024 
889.083374 0.0 
889.166687 0.0 
889.25 0.0 
889.5 2.376429 
889.833374 2.43456 
890.333374 2.594002 
890.916687 8.887191 
891.166687 11.230197 
891.5 0.0 
891.583374 0.0 
891.75 0.000633 
892.083374 0.0 
892.25 0.0 
892.583374 0.0 
892.666687 0.0 
892.833374 0.0 
893.166687 0.0 
893.333374 0.0 
893.666687 0.0 
893.916687 0.0 
894.416687 2.81893 
894.833374 0.0 
895.0 0.000239 
895.416687 0.9875 
895.75 0.0 
895.916687 8.7e-05 
896.25 0.0 
896.5 0.0 
896.75 2.373937 
897.083374 0.0 
897.333374 0.000137 
897.666687 0.0 
898.0 2.194379 
898.333374 0.89584 
898.5 0.679502 
899.083374 2.607964 
899.5 3.83785 
899.833374 0.0 
900.083374 0.000177 
900.416687 0.0 
900.583374 0.0 
901.166687 4.738819 
901.333374 3.183924 
901.666687 8.538522 
901.833374 6.510245 
902.083374 14.119884 
902.416687 0.0 
902.666687 0.000751 
903.0 2.33843 
903.333374 0.0 
903.416687 0.0 
903.583374 0.000216 
903.916687 0.0 
904.166687 0.654618 
904.5 0.0 
904.75 3.9e-05 
905.083374 0.0 
905.333374 2.194381 
905.75 0.0 
905.916687 0.000136 
906.25 0.0 
906.416687 0.0 
906.833374 0.0 
907.0 0.0 
907.333374 0.0 
907.5 0.0 
907.833374 0.508383 
908.166687 0.0 
908.416687 2.8e-05 
908.75 0.0 
908.916687 0.0 
909.25 0.0 
909.5 0.0 
909.833374 0.0 
910.0 0.0 
910.333374 0.0 
910.5 0.0 
910.833374 0.0 
910.916687 0.0 
911.083374 0.0 
911.5 6.315455 
911.833374 0.0 
911.916687 0.0 
912.083374 0.000384 
912.416687 0.0 
912.583374 0.0 
912.916687 0.0 
913.166687 2.492025 
913.583374 0.0 
913.75 0.000211 
914.083374 0.0 
914.333374 0.0 
914.75 0.999747 
915.083374 2.996007 
915.25 4.187435 
915.5 4.926028 
916.166687 73.663498 
917.0 13.537937 
917.333374 2.207442 
917.666687 0.0 
917.75 0.0 
917.916687 0.000136 
918.25 0.0 
918.416687 0.0 
918.75 0.0 
918.833374 0.0 
919.0 0.0 
919.333374 0.0 
919.5 0.0 
919.833374 0.0 
920.083374 0.0 
920.416687 0.0 
920.583374 0.0 
920.916687 0.0 
921.166687 0.0 
921.5 0.0 
921.666687 0.0 
922.0 0.0 
922.166687 0.0 
922.416687 2.372259 
922.75 0.0 
923.0 0.000125 
923.333374 0.0 
923.5 0.0 
924.0 7.489869 
924.416687 0.0 
924.5 0.0 
924.666687 0.000264 
925.0 0.0 
925.166687 0.0 
925.666687 1.355429 
926.0 0.0 
926.166687 0.000116 
926.5 0.0 
926.75 0.0 
927.083374 0.0 
927.25 0.0 
927.583374 0.0 
927.833374 0.0 
928.166687 0.0 
928.333374 0.0 
928.666687 0.0 
928.833374 0.0 
929.166687 0.0 
929.25 0.0 
929.416687 0.0 
929.75 0.0 
929.916687 0.0 
930.25 0.0 
930.333374 0.0 
930.5 0.0 
930.75 0.0 
930.833374 0.0 
930.916687 0.0 
931.0 0.0 
931.083374 0.0 
931.166687 0.0 
931.25 0.0 
931.333374 0.0 
931.416687 0.0 
931.5 0.0 
931.583374 0.0 
931.666687 0.0 
931.75 0.0 
931.833374 0.0 
931.916687 0.0 
932.0 0.0 
932.083374 0.0 
932.166687 0.0 
932.25 0.0 
932.333374 0.0 
932.416687 0.0 
932.5 0.0 
932.583374 0.0 
932.666687 0.0 
932.75 0.0 
932.833374 0.0 
932.916687 0.0 
933.0 0.0 
933.083374 0.0 
933.166687 0.0 
933.25 0.0 
933.5 2.749115 
933.916687 0.0 
934.083374 0.000236 
934.416687 0.0 
934.583374 0.356732 
935.0 0.0 
935.166687 3.3e-05 
935.5 0.0 
935.75 0.0 
936.083374 0.0 
936.25 0.0 
936.583374 0.0 
936.75 0.0 
937.083374 0.0 
937.166687 0.0 
937.333374 0.0 
937.666687 0.0 
937.833374 0.0 
938.166687 0.0 
938.25 0.0 
938.416687 0.0 
938.75 0.0 
938.916687 0.0 
939.25 0.0 
939.333374 0.0 
939.5 0.0 
939.666687 0.0 
939.75 0.0 
939.833374 0.0 
939.916687 0.0 
940.0 0.0 
940.083374 0.0 
940.166687 0.0 
940.25 0.0 
940.333374 0.0 
940.416687 0.0 
940.5 0.0 
940.583374 0.0 
940.666687 0.0 
940.75 0.0 
940.833374 0.0 
940.916687 0.0 
941.0 0.0 
941.083374 0.0 
941.166687 0.0 
941.25 0.0 
941.333374 0.0 
941.416687 0.0 
941.5 0.0 
941.583374 0.0 
941.666687 0.0 
941.75 0.0 
941.833374 0.0 
941.916687 0.0 
942.0 0.0 
942.083374 0.0 
942.166687 0.0 
942.25 0.0 
942.333374 0.0 
942.416687 0.0 
942.5 0.0 
942.583374 0.0 
942.666687 0.0 
942.75 0.0 
942.833374 0.0 
942.916687 0.0 
943.0 0.0 
943.083374 0.0 
943.166687 0.0 
943.25 0.0 
943.333374 0.0 
943.416687 0.0 
943.5 0.0 
943.583374 0.0 
943.666687 0.0 
943.75 0.0 
943.833374 0.0 
943.916687 0.0 
944.0 0.0 
944.083374 0.0 
944.166687 0.0 
944.25 0.0 
944.333374 0.0 
944.416687 0.0 
944.5 0.0 
944.583374 0.0 
944.666687 0.0 
944.75 0.0 
944.833374 0.0 
944.916687 0.0 
END IONS

BEGIN IONS
TITLE=CCMSLIB00000427300
PEPMASS=402.3
CHARGE=1+
COMPOUND_NAME=Myxalamid B
ADDUCT=[M+H]1+
SMILES=CC(C=CC=CC=CC=C(C)C(=O)NC(C)CO)=CC(C)C(O)C(C)=CC(C)C
SCANS=2057
MS_MASS_ANALYZER=qtof
MS_IONISATION=ESI
SPECTRUM_ID=CCMSLIB00000427300
IONMODE=positive
MS_LEVEL=2
PRECURSOR_MZ=402.3
145.100235 20.0 
154.085434 13.0 
159.117126 110.0 
168.101273 34.0 
170.116165 13.0 
171.118271 16.0 
173.097244 73.0 
173.132843 46.0 
175.110291 13.0 
175.148041 15.0 
177.162292 19.0 
182.117477 241.0 
184.119415 13.0 
184.132858 84.0 
185.095795 123.0 
185.132553 28.0 
187.111923 128.0 
187.148193 711.0 
188.152054 152.0 
189.129333 39.0 
189.163879 257.0 
190.123047 46.0 
190.167206 38.0 
191.146545 15.0 
191.177933 12.0 
194.117142 28.0 
194.153931 272.0 
195.158585 19.0 
196.133316 275.0 
197.132828 370.0 
198.112579 12.0 
198.136505 51.0 
198.145538 15.0 
199.112335 91.0 
199.148071 194.0 
200.11702 16.0 
200.151291 25.0 
201.127655 75.0 
201.16394 2129.0 
202.170776 1026.0 
202.582733 22.0 
203.106415 103.0 
203.144424 21.0 
203.175171 218.0 
204.179703 13.0 
206.120911 28.0 
207.113007 25.0 
208.133408 5332.0 
209.136353 775.0 
210.139435 82.0 
210.148026 38.0 
210.153442 17.0 
211.111893 240.0 
211.148483 290.0 
211.587723 13.0 
212.115829 29.0 
212.125092 13.0 
212.151642 42.0 
212.578659 12.0 
212.993591 21.0 
213.127625 433.0 
213.163757 649.0 
214.132828 84.0 
214.167282 154.0 
214.173874 15.0 
215.143219 10004.0 
215.179398 549.0 
216.146591 1685.0 
216.182953 121.0 
217.149551 127.0 
217.157196 137.0 
217.196198 13.0 
218.162094 15.0 
218.597473 14.0 
219.101501 33.0 
219.617874 16.0 
221.132034 33.0 
221.138748 34.0 
221.599274 12.0 
222.148422 173.0 
223.149124 77.0 
224.162582 76.0 
225.127502 1174.0 
225.164307 530.0 
226.131302 243.0 
226.167496 148.0 
226.174225 14.0 
226.575485 12.0 
227.107956 22.0 
227.142685 729.0 
227.179535 1720.0 
228.146149 180.0 
228.185135 557.0 
228.625153 25.0 
229.123962 85.0 
229.144272 24.0 
229.158371 306.0 
229.19426 614.0 
230.160736 55.0 
230.198822 115.0 
230.610764 22.0 
231.100754 86.0 
231.137054 28.0 
231.17363 24.0 
232.16861 36.0 
233.152786 65.0 
234.149536 100.0 
235.148178 153.0 
235.609985 13.0 
235.616653 13.0 
235.632233 42.0 
236.118896 17.0 
236.130203 33.0 
236.164444 210.0 
236.587601 13.0 
236.622925 25.0 
237.127182 15.0 
237.164474 91.0 
237.170547 22.0 
237.624725 22.0 
238.140213 18.0 
238.168655 20.0 
238.180542 42.0 
238.605042 17.0 
239.14299 638.0 
239.179535 773.0 
240.147064 182.0 
240.18306 213.0 
240.58078 17.0 
241.121429 39.0 
241.158356 308.0 
241.195099 704.0 
241.58812 16.0 
242.160934 21.0 
242.167786 13.0 
242.198624 199.0 
243.136383 43.0 
243.174805 125.0 
243.627823 19.0 
244.176117 13.0 
244.621155 39.0 
244.637329 18.0 
245.153336 13.0 
245.626556 23.0 
246.147003 29.0 
246.632492 17.0 
247.149033 17.0 
248.164917 769.0 
249.112076 657.0 
249.164734 571.0 
249.621552 50.0 
250.116043 109.0 
250.165848 98.0 
250.179733 192.0 
250.595078 156.0 
250.627777 76.0 
251.000748 73.0 
251.094986 32.0 
251.102081 17.0 
251.128204 79.0 
251.143539 91.0 
251.179993 389.0 
251.5961 27.0 
251.620209 23.0 
251.640305 12.0 
252.075775 33.0 
252.120224 19.0 
252.150314 25.0 
252.182037 37.0 
252.587387 17.0 
252.619064 16.0 
252.629272 13.0 
252.996887 19.0 
253.085556 17.0 
253.158737 2001.0 
253.19516 618.0 
253.625183 13.0 
254.124374 19.0 
254.161987 487.0 
254.198914 124.0 
254.618271 22.0 
255.074829 13.0 
255.164337 32.0 
255.173996 64.0 
255.209824 40.0 
255.645386 13.0 
256.127686 14.0 
257.159149 12.0 
257.581177 13.0 
257.601257 28.0 
258.148682 23.0 
258.15567 18.0 
258.598602 13.0 
258.626495 164.0 
259.105591 19.0 
259.12738 34.0 
259.164948 12.0 
259.589661 15.0 
259.633362 116.0 
260.13562 38.0 
260.164581 610.0 
260.582062 13.0 
260.614136 27.0 
260.634338 22.0 
261.092316 36.0 
261.111633 25.0 
261.151367 18.0 
261.168335 122.0 
261.570007 15.0 
261.606354 16.0 
261.623444 25.0 
261.640137 20.0 
262.07724 18.0 
262.143066 68.0 
262.179932 508.0 
263.058167 102.0 
263.093018 24.0 
263.109253 13.0 
263.138397 20.0 
263.182983 149.0 
264.056885 13.0 
264.08252 20.0 
264.123535 17.0 
264.160339 32.0 
264.196045 605.0 
264.600739 46.0 
264.632416 18.0 
265.106812 68.0 
265.159332 211.0 
265.19812 164.0 
265.204773 27.0 
265.606842 18.0 
265.61618 19.0 
265.634338 216.0 
266.123047 14.0 
266.136169 43.0 
266.16684 255.0 
266.199615 32.0 
266.211304 13.0 
266.587585 23.0 
266.596405 25.0 
266.62384 36.0 
267.122955 9149.0 
267.174377 3136.0 
267.21109 186.0 
267.226715 18.0 
267.621826 13.0 
267.631927 177.0 
268.105286 12.0 
268.126495 1385.0 
268.178009 704.0 
268.214081 20.0 
268.582062 12.0 
268.612549 18.0 
268.629547 19.0 
268.639099 28.0 
269.128357 161.0 
269.154999 93.0 
269.189941 533.0 
269.228333 17.0 
269.585968 20.0 
269.617401 18.0 
269.625732 15.0 
269.632904 17.0 
270.116302 18.0 
270.132538 36.0 
270.192566 140.0 
270.607452 12.0 
270.618835 18.0 
270.627747 22.0 
271.114655 33.0 
271.168274 46.0 
271.190857 13.0 
271.591614 26.0 
272.097015 13.0 
272.162903 16.0 
272.201019 360.0 
272.598083 13.0 
272.615601 13.0 
273.129028 13.0 
273.184204 38.0 
273.204193 82.0 
273.603973 13.0 
273.613586 24.0 
273.632141 22.0 
274.180298 338.0 
274.216492 16.0 
274.61972 34.0 
274.639008 313.0 
275.118378 16.0 
275.141205 60.0 
275.183228 38.0 
275.190674 20.0 
275.628296 82.0 
275.636505 72.0 
276.129547 40.0 
276.159882 276.0 
276.19577 327.0 
276.232056 34.0 
276.637482 14.0 
277.10791 19.0 
277.164215 21.0 
277.198364 75.0 
277.626709 14.0 
277.636322 30.0 
278.101013 40.0 
278.11499 15.0 
278.136963 21.0 
278.175323 555.0 
278.211029 269.0 
279.095001 18.0 
279.17865 122.0 
279.193604 13.0 
279.210907 208.0 
279.648865 15.0 
280.181763 22.0 
280.211761 39.0 
281.102478 79.0 
281.120697 18.0 
281.190125 117.0 
281.226685 3502.0 
281.60434 31.0 
281.61676 21.0 
282.095886 17.0 
282.109619 16.0 
282.131195 12.0 
282.151154 14.0 
282.229889 889.0 
282.623016 92.0 
282.637482 105.0 
282.652985 18.0 
283.107147 27.0 
283.119324 79.0 
283.129089 25.0 
283.149384 20.0 
283.16983 110.0 
283.204803 30.0 
283.241913 831.0 
283.616943 29.0 
283.626892 203.0 
283.644531 668.0 
284.089142 16.0 
284.110931 16.0 
284.126282 48.0 
284.146393 300.0 
284.177185 19.0 
284.214111 15.0 
284.245667 237.0 
284.611816 23.0 
284.633728 236.0 
284.646088 33.0 
285.093109 14.0 
285.116638 35.0 
285.137085 89.0 
285.148315 27.0 
285.186554 18.0 
285.603424 41.0 
285.623383 189.0 
285.638916 42.0 
285.658539 19.0 
286.096802 190.0 
286.124481 59.0 
286.135742 26.0 
286.180084 172.0 
286.189697 14.0 
286.597504 46.0 
286.610229 21.0 
286.635498 22.0 
286.646484 20.0 
287.121613 27.0 
287.143646 32.0 
287.164673 27.0 
287.188141 308.0 
287.601501 17.0 
287.623108 13.0 
287.637146 22.0 
287.674622 14.0 
288.094818 15.0 
288.150543 20.0 
288.196014 2031.0 
288.232239 208.0 
288.624237 33.0 
288.636902 56.0 
288.654755 45.0 
289.084503 15.0 
289.203156 2176.0 
289.237152 17.0 
289.631012 14.0 
289.663696 21.0 
290.135284 16.0 
290.1586 20.0 
290.181305 12.0 
290.211792 19819.0 
290.612946 27.0 
290.626892 50.0 
290.652557 48.0 
291.113037 27.0 
291.126709 14.0 
291.137726 13.0 
291.15271 16.0 
291.163269 23.0 
291.185272 14.0 
291.214508 4619.0 
291.618408 38.0 
291.629272 49.0 
291.646271 50.0 
292.21756 651.0 
292.626373 42.0 
292.646088 17.0 
293.136993 36.0 
293.163544 17.0 
293.175018 19.0 
293.195129 14.0 
293.21875 47.0 
293.227356 14.0 
293.618896 15.0 
293.656128 80.0 
294.1315 31.0 
294.158569 41.0 
294.169586 16.0 
294.202698 18.0 
295.117401 34.0 
295.206757 36.0 
295.640381 12.0 
296.105347 17.0 
296.122345 15.0 
296.135071 13.0 
296.148926 20.0 
296.172363 13.0 
296.2948 171.0 
296.630768 15.0 
296.666534 13.0 
297.119385 28.0 
297.146545 17.0 
297.166595 12.0 
297.221344 262.0 
297.295227 27.0 
297.595245 15.0 
297.609955 14.0 
297.635468 30.0 
297.677368 18.0 
298.225006 41.0 
298.608368 28.0 
298.629761 31.0 
298.637939 22.0 
299.163757 19.0 
299.177795 14.0 
299.237488 156.0 
299.622406 12.0 
300.19574 509.0 
300.240967 29.0 
300.631897 42.0 
301.138275 17.0 
301.199615 149.0 
301.603668 18.0 
301.67868 18.0 
302.111755 15.0 
302.175232 132.0 
302.211884 2481.0 
302.602203 19.0 
302.62027 21.0 
302.661285 59.0 
302.681244 30.0 
303.120239 18.0 
303.139618 13.0 
303.157257 17.0 
303.168549 18.0 
303.181976 14.0 
303.21524 661.0 
303.650146 17.0 
304.106171 43.0 
304.137238 17.0 
304.146027 15.0 
304.190277 195.0 
304.219177 76.0 
304.226929 15.0 
304.613129 17.0 
304.626221 21.0 
304.642517 41.0 
304.656464 28.0 
305.107483 13.0 
305.139648 23.0 
305.152588 17.0 
305.172394 13.0 
305.19223 38.0 
305.620972 18.0 
305.636749 50.0 
305.644531 13.0 
305.662842 33.0 
306.113953 12.0 
306.135406 32.0 
306.160858 22.0 
306.204193 17.0 
306.245361 22.0 
306.625824 17.0 
306.644531 230.0 
306.65802 13.0 
306.667297 12.0 
307.104309 20.0 
307.139252 39.0 
307.148071 66.0 
307.166718 14.0 
307.205811 567.0 
307.615723 14.0 
307.636627 14.0 
307.65683 18.0 
308.169586 33.0 
308.183044 14.0 
308.209229 160.0 
308.625122 25.0 
308.645996 21.0 
308.666931 19.0 
309.16925 32.0 
309.221588 15952.0 
309.279846 48.0 
310.126221 17.0 
310.224915 4274.0 
310.631927 13.0 
311.164093 52.0 
311.196594 19.0 
311.228668 550.0 
311.294312 62.0 
311.626434 18.0 
312.173706 27.0 
312.230499 47.0 
312.671143 14.0 
313.137299 18.0 
313.646729 27.0 
313.666138 17.0 
314.212341 101.0 
314.6362 48.0 
315.135284 12.0 
315.149597 24.0 
315.186493 22.0 
315.214264 14.0 
315.608734 17.0 
315.626434 13.0 
315.63446 29.0 
316.125305 15.0 
316.165497 30.0 
316.189514 36.0 
316.227417 167.0 
316.628296 26.0 
317.180115 20.0 
318.119049 13.0 
318.163391 24.0 
318.205505 86.0 
318.621765 12.0 
318.677704 13.0 
319.140045 14.0 
319.664062 25.0 
320.107483 12.0 
320.118927 20.0 
320.147705 26.0 
320.166595 45.0 
320.19101 29.0 
320.626831 25.0 
320.642059 71.0 
320.6521 21.0 
320.662354 30.0 
320.704346 21.0 
321.12973 77.0 
321.144287 91.0 
321.161743 57.0 
321.176697 40.0 
321.202942 17.0 
321.22348 24.0 
321.60321 13.0 
321.617462 56.0 
321.634705 126.0 
321.645538 38.0 
321.654541 89.0 
321.668823 25.0 
321.679382 26.0 
322.064697 17.0 
322.081238 13.0 
322.111969 23.0 
322.127625 38.0 
322.140594 54.0 
322.152924 47.0 
322.161438 39.0 
322.169647 35.0 
322.184113 20.0 
322.202515 39.0 
322.599396 22.0 
322.613129 33.0 
322.621826 36.0 
322.630524 37.0 
322.640717 179.0 
322.652802 71.0 
322.669006 58.0 
322.683197 36.0 
323.081604 228.0 
323.113007 56.0 
323.121094 37.0 
323.132629 48.0 
323.151978 130.0 
323.163757 20.0 
323.17691 96.0 
323.188812 16.0 
323.200165 242.0 
323.233429 17.0 
323.601166 13.0 
323.635956 136.0 
323.646576 43.0 
323.658234 44.0 
323.679962 47.0 
323.688354 15.0 
324.091125 23.0 
324.102753 18.0 
324.116943 38.0 
324.12674 27.0 
324.135193 33.0 
324.144104 98.0 
324.164368 25.0 
324.18045 73.0 
324.202881 105.0 
324.213867 27.0 
324.234161 71.0 
324.61969 67.0 
324.633118 96.0 
324.64389 19.0 
324.65509 43.0 
324.681305 69.0 
325.008148 38.0 
325.113251 31.0 
325.129242 65.0 
325.141968 63.0 
325.158325 101.0 
325.175415 83.0 
325.18512 12.0 
325.196167 17.0 
325.21637 1382.0 
325.250946 13.0 
325.626526 19.0 
325.636292 37.0 
325.650574 18.0 
325.665771 22.0 
325.679382 36.0 
326.092621 14.0 
326.114655 25.0 
326.13028 51.0 
326.1474 115.0 
326.161255 69.0 
326.173157 18.0 
326.187683 100.0 
326.219604 404.0 
326.238922 20.0 
326.248016 51.0 
326.627167 57.0 
326.641632 46.0 
326.658203 76.0 
326.671844 21.0 
326.686554 23.0 
327.00885 321.0 
327.076782 177.0 
327.108154 21.0 
327.11853 18.0 
327.127258 19.0 
327.137604 45.0 
327.151367 51.0 
327.163422 74.0 
327.177155 55.0 
327.193176 47.0 
327.201904 29.0 
327.231964 2707.0 
327.268494 36.0 
327.608124 20.0 
327.641754 88.0 
327.655334 28.0 
327.669556 19.0 
327.677765 36.0 
327.696869 15.0 
328.010376 13.0 
328.072083 18.0 
328.081451 13.0 
328.104309 25.0 
328.125549 25.0 
328.139465 35.0 
328.157562 211.0 
328.165863 25.0 
328.183594 27.0 
328.231537 974.0 
328.625122 21.0 
328.653717 36.0 
328.663818 22.0 
328.673889 29.0 
328.684814 14.0 
329.004669 146.0 
329.120758 16.0 
329.154877 48.0 
329.175079 23.0 
329.212402 56.0 
329.232849 248.0 
329.639343 28.0 
329.665283 54.0 
330.050446 13.0 
330.131195 21.0 
330.167175 41.0 
330.189148 12.0 
330.228912 12.0 
330.639374 13.0 
330.648956 24.0 
332.158508 15.0 
332.688873 22.0 
334.168488 12.0 
335.182434 23.0 
335.190918 26.0 
336.150238 13.0 
336.18396 13.0 
336.654053 13.0 
336.672943 25.0 
337.147766 17.0 
337.691833 14.0 
340.162537 12.0 
340.227386 106.0 
341.089325 47.0 
341.186493 16.0 
341.199219 13.0 
341.232819 111.0 
341.650055 12.0 
342.207489 28.0 
342.243011 816.0 
343.166534 12.0 
343.230591 15.0 
343.246094 270.0 
344.130432 12.0 
344.22226 100.0 
344.233917 17.0 
344.259277 89.0 
345.154755 12.0 
346.125458 264.0 
346.164978 15.0 
346.626862 93.0 
346.673767 18.0 
346.713989 18.0 
347.16864 13.0 
347.648438 13.0 
347.701355 13.0 
348.133362 13.0 
348.180969 21.0 
348.676178 12.0 
350.696808 51.0 
351.180389 16.0 
351.189636 16.0 
351.204773 29.0 
352.174042 23.0 
353.170227 20.0 
353.191681 29.0 
353.685547 400.0 
354.187164 239.0 
354.688019 17.0 
355.155914 12.0 
355.187073 15.0 
355.685059 20.0 
356.216003 19.0 
356.260437 22.0 
356.660095 13.0 
357.179657 12.0 
357.675629 12.0 
358.237823 149.0 
358.27417 35.0 
358.689941 13.0 
359.242249 19.0 
359.649445 23.0 
359.664764 14.0 
359.684296 14.0 
359.700104 88.0 
360.129333 20.0 
360.147461 20.0 
360.165924 17.0 
360.199951 41.0 
360.640808 13.0 
360.660614 31.0 
360.697113 17.0 
360.713837 18.0 
360.730896 20.0 
361.157928 34.0 
361.169495 14.0 
361.185516 22.0 
361.206146 21.0 
361.6362 13.0 
361.654602 12.0 
361.670441 25.0 
361.68396 51.0 
361.705444 59.0 
362.163361 65.0 
362.182983 26.0 
362.202728 20.0 
362.645081 38.0 
362.655396 29.0 
362.690247 872.0 
362.723389 23.0 
363.134796 16.0 
363.144196 15.0 
363.153748 13.0 
363.167999 18.0 
363.191925 403.0 
363.651184 14.0 
363.669189 18.0 
363.679169 27.0 
363.693634 172.0 
363.710052 13.0 
363.72406 13.0 
364.138794 20.0 
364.149963 19.0 
364.164001 34.0 
364.175751 52.0 
364.192566 76.0 
364.638641 20.0 
364.66333 28.0 
364.691101 59.0 
365.150635 19.0 
365.170441 51.0 
365.193848 252.0 
365.652039 15.0 
365.664001 13.0 
365.675598 34.0 
365.684814 13.0 
365.696594 81.0 
365.726501 13.0 
366.163208 29.0 
366.179474 24.0 
366.193542 101.0 
366.279449 406.0 
366.681244 40.0 
366.698029 22.0 
367.139374 18.0 
367.165649 20.0 
367.178864 28.0 
367.194183 54.0 
367.220978 18.0 
367.266052 65.0 
367.281586 100.0 
367.654297 16.0 
367.666351 14.0 
367.693146 18.0 
368.152008 17.0 
368.178894 32.0 
368.19519 38.0 
368.692291 18.0 
369.169983 202.0 
370.172882 33.0 
370.183929 20.0 
370.198273 20.0 
371.177643 24.0 
371.211548 16.0 
371.282745 13.0 
372.189026 16.0 
372.29425 18.0 
374.23114 32.0 
380.164886 17.0 
380.213806 16.0 
380.257141 65.0 
381.201477 14.0 
381.218628 24.0 
381.243347 13.0 
381.267761 14.0 
382.147797 16.0 
382.187469 40.0 
382.224182 14.0 
382.236877 15.0 
382.273865 1397.0 
382.4104 13.0 
383.182007 22.0 
383.278107 439.0 
384.169525 36.0 
384.182617 14.0 
384.199982 36.0 
384.233551 23.0 
384.256561 27.0 
384.29007 30649.0 
384.340271 32.0 
384.358429 27.0 
385.153351 12.0 
385.203949 47.0 
385.216278 29.0 
385.235748 14.0 
385.25296 14.0 
385.29306 8909.0 
385.343597 31.0 
385.367279 23.0 
386.178253 21.0 
386.192383 21.0 
386.23233 31.0 
386.268738 37.0 
386.295929 1451.0 
387.136139 16.0 
387.180206 1939.0 
387.271027 19.0 
387.299194 176.0 
388.183502 587.0 
388.247681 100.0 
388.302521 14.0 
389.188293 102.0 
398.10495 13.0 
398.18045 22.0 
398.196625 17.0 
398.22052 52.0 
398.236328 13.0 
398.268646 539.0 
398.298828 35.0 
398.362915 271.0 
398.788788 13.0 
399.140167 24.0 
399.163696 19.0 
399.182861 69.0 
399.205475 26.0 
399.217773 69.0 
399.245239 19.0 
399.272156 375.0 
399.363373 194.0 
399.695129 16.0 
400.164551 35.0 
400.174744 42.0 
400.193695 141.0 
400.208984 84.0 
400.234833 68.0 
400.250214 139.0 
400.284576 6206.0 
400.322144 30.0 
400.341248 18.0 
400.378571 897.0 
400.400757 12.0 
400.708344 19.0 
401.14447 20.0 
401.174622 13.0 
401.193146 102.0 
401.210358 57.0 
401.230408 49.0 
401.251373 41.0 
401.288025 1870.0 
401.368195 12.0 
401.381775 237.0 
402.09314 12.0 
402.177094 99.0 
402.193298 95.0 
402.210571 42.0 
402.226959 123.0 
402.246216 75.0 
402.263428 234.0 
402.300537 34549.0 
402.341217 33.0 
402.356293 241.0 
402.381317 42.0 
402.449646 15.0 
402.686951 16.0 
403.126587 17.0 
403.145325 13.0 
403.160339 23.0 
403.177185 43.0 
403.190063 22.0 
403.208252 135.0 
403.227844 20.0 
403.24472 84.0 
403.265839 46.0 
403.303741 10143.0 
403.355957 56.0 
403.366364 19.0 
403.6828 26.0 
403.695312 12.0 
404.143433 33.0 
404.160004 47.0 
404.19278 108.0 
404.20752 132.0 
404.24411 133.0 
404.255096 18.0 
404.279449 301.0 
404.306641 1554.0 
404.338531 15.0 
404.744049 15.0 
405.153931 34.0 
405.174744 35.0 
405.188934 24.0 
405.206848 27.0 
405.217743 36.0 
405.229004 93.0 
405.240448 23.0 
405.254547 32.0 
405.282654 89.0 
405.30896 295.0 
405.338104 17.0 
405.743103 14.0 
406.15506 96.0 
406.184723 53.0 
406.20343 17.0 
406.220886 177.0 
406.243073 14.0 
406.258484 159.0 
406.287231 38.0 
406.701233 12.0 
407.145355 18.0 
407.172089 57.0 
407.209534 22.0 
407.226257 25.0 
407.286346 17.0 
408.715851 12.0 
422.167542 102.0 
464.210083 55.0 
470.260071 13.0 
END IONS

BEGIN IONS
TITLE=CCMSLIB00012360818
PEPMASS=279.17
CHARGE=1+
COMPOUND_NAME=H-LEU-PHE-OH
ADDUCT=[M+H]1+
SMILES=CC(C)CC(N)C(=O)NC(Cc1ccccc1)C(=O)O
SCANS=181645
MS_MANUFACTURER=Thermo
MS_MASS_ANALYZER=orbitrap
MS_IONISATION=ESI
SPECTRUM_ID=CCMSLIB00012360818
IONMODE=positive
MS_LEVEL=2
PRECURSOR_MZ=279.17
41.038528 0.637 
42.033878 1.677 
43.041729 0.391 
43.05418 0.804 
44.049416 4.368 
50.015144 1.407 
51.022949 35.387001 
52.030853 0.108 
53.038593 2.557 
55.017891 0.114 
63.02293 0.431 
65.038544 3.909 
66.046295 0.137 
67.054222 0.144 
69.069847 0.211 
74.01506 0.24 
75.022881 0.495 
76.030708 0.481 
77.038521 30.709 
77.040543 0.503 
78.046349 0.307 
79.054184 1.812 
80.049431 0.651 
81.033417 0.127 
86.09623 30.148001 
86.101875 0.424 
86.105576 0.52 
90.046364 0.094 
91.054176 18.781 
91.056747 0.256 
92.049408 0.216 
93.033424 0.527 
93.057266 1.148 
93.069832 5.341 
94.065063 0.365 
95.049088 34.307999 
95.051979 0.42 
102.046349 2.331 
103.051918 0.154 
103.054153 63.775002 
103.057228 0.74 
103.059357 0.261 
104.049431 0.339 
105.044678 4.86 
105.057205 0.195 
107.049126 0.575 
110.060066 0.108 
111.043999 0.553 
118.065086 1.23 
119.072906 0.892 
120.075546 0.541 
120.080711 100.0 
120.084305 0.987 
120.087364 0.265 
120.090073 0.116 
121.028358 0.828 
121.039612 0.393 
131.049149 1.152 
149.02327 5.84 
149.059769 0.355 
166.086365 4.96 
176.062378 0.106 
233.165375 0.488 
279.171448 2.132 
END IONS

BEGIN IONS
TITLE=CCMSLIB00012360820
PEPMASS=279.17
CHARGE=1+
COMPOUND_NAME=H-LEU-PHE-OH
ADDUCT=[M+H]1+
SMILES=CC(C)CC(N)C(=O)NC(Cc1ccccc1)C(=O)O
SCANS=181646
MS_MANUFACTURER=Thermo
MS_MASS_ANALYZER=orbitrap
MS_IONISATION=ESI
SPECTRUM_ID=CCMSLIB00012360820
IONMODE=positive
MS_LEVEL=2
PRECURSOR_MZ=279.17
41.038528 2.112 
43.05418 2.668 
44.049416 14.488 
69.069847 0.699 
86.096184 100.0 
86.101875 1.406 
86.105576 1.723 
103.054092 1.424 
120.080643 12.796 
121.028473 1.213 
149.02327 6.489 
166.086349 16.452 
233.165649 1.617 
279.171448 7.072 
END IONS

BEGIN IONS
TITLE=CCMSLIB00012360829
PEPMASS=279.17
CHARGE=1+
COMPOUND_NAME=H-LEU-PHE-OH
ADDUCT=[M+H]1+
SMILES=CC(C)CC(N)C(=O)NC(Cc1ccccc1)C(=O)O
SCANS=181651
MS_MANUFACTURER=Thermo
MS_MASS_ANALYZER=orbitrap
MS_IONISATION=ESI
SPECTRUM_ID=CCMSLIB00012360829
IONMODE=positive
MS_LEVEL=2
PRECURSOR_MZ=279.17
86.096199 100.0 
120.080818 3.853 
166.086441 17.76 
279.171173 9.595 
END IONS

BEGIN IONS
TITLE=CCMSLIB00012360831
PEPMASS=279.17
CHARGE=1+
COMPOUND_NAME=H-LEU-PHE-OH
ADDUCT=[M+H]1+
SMILES=CC(C)CC(N)C(=O)NC(Cc1ccccc1)C(=O)O
SCANS=181652
MS_MANUFACTURER=Thermo
MS_MASS_ANALYZER=orbitrap
MS_IONISATION=ESI
SPECTRUM_ID=CCMSLIB00012360831
IONMODE=positive
MS_LEVEL=2
PRECURSOR_MZ=279.17
86.096176 100.0 
120.080612 5.085 
166.086304 13.008 
279.17157 2.578 
END IONS

BEGIN IONS
TITLE=CCMSLIB00003136591
PEPMASS=352.165
CHARGE=1+
COMPOUND_NAME=Spectral Match to Trp-Phe from NIST14
ADDUCT=[M+H]1+
SMILES=NC(Cc1c[nH]c2ccccc12)C(=O)NC(Cc1ccccc1)C(=O)O
SCANS=35860
COLLISION_ENERGY=31.0
MS_MANUFACTURER=Bruker Daltonics
MS_MASS_ANALYZER=qtof
MS_IONISATION=ESI
SPECTRUM_ID=CCMSLIB00003136591
IONMODE=positive
MS_LEVEL=2
PRECURSOR_MZ=352.165
110.071373 211.0 
120.080269 179.0 
130.06456 406.0 
132.08168 452.0 
142.062073 97.0 
144.079422 501.0 
146.060638 284.0 
159.092422 1628.0 
160.096436 156.0 
170.059357 329.0 
190.025085 76.0 
192.074585 80.0 
217.141144 89.0 
335.13913 125.0 
562.014221 80.0 
END IONS

BEGIN IONS
TITLE=MSBNK-RIKEN-PR311061
PEPMASS=279.1725
CHARGE=1+
COMPOUND_NAME=Leucylphenylalanine
ADDUCT=[M+H]1+
SMILES=CC(C)CC(N)C(=O)NC(Cc1ccccc1)C(=O)O
SCANS=906010
COLLISION_ENERGY=6.0
MS_MANUFACTURER=Waters
MS_MASS_ANALYZER=qtof
MS_IONISATION=ESI
SPECTRUM_ID=MSBNK-RIKEN-PR311061
IONMODE=positive
MS_LEVEL=2
PRECURSOR_MZ=279.1725
86.09342 91.0 
86.09953 131.0 
86.1072 22.0 
95.09064 42.0 
112.07807 17.0 
120.08228 22.0 
121.09296 18.0 
208.12459 18.0 
252.18599 16.0 
279.14908 28.0 
279.16895 79.0 
END IONS

BEGIN IONS
TITLE=MSBNK-RIKEN-PR310823
PEPMASS=457.1835
CHARGE=1+
COMPOUND_NAME=N-Fructosyl glutamylphenylalanine
ADDUCT=[M+H]1+
SMILES=O=C(O)CCC(NCC1(O)OCC(O)C(O)C1O)C(=O)NC(Cc1ccccc1)C(=O)O
SCANS=905765
COLLISION_ENERGY=6.0
MS_MANUFACTURER=Waters
MS_MASS_ANALYZER=qtof
MS_IONISATION=ESI
SPECTRUM_ID=MSBNK-RIKEN-PR310823
IONMODE=positive
MS_LEVEL=2
PRECURSOR_MZ=457.1835
97.03547 18.0 
114.05749 17.0 
120.07735 37.0 
130.04848 22.0 
131.04692 17.0 
166.09048 20.0 
174.05791 42.0 
185.17258 23.0 
186.09109 46.0 
196.15544 25.0 
197.12149 21.0 
208.04956 19.0 
208.06047 121.0 
218.08163 23.0 
232.10533 16.0 
246.14934 22.0 
274.09732 20.0 
305.71381 19.0 
373.12915 49.0 
373.1485 51.0 
374.1489 20.0 
376.16827 16.0 
385.13507 32.0 
403.14664 47.0 
414.26849 42.0 
421.13498 18.0 
421.1582 36.0 
422.14166 39.0 
422.17288 32.0 
439.16943 52.0 
439.19678 24.0 
457.1405 41.0 
457.18109 368.0 
END IONS

BEGIN IONS
TITLE=CCMSLIB00003137813
PEPMASS=352.165
CHARGE=1+
COMPOUND_NAME=Spectral Match to Trp-Phe from NIST14
ADDUCT=[M+H]1+
SMILES=NC(Cc1c[nH]c2ccccc12)C(=O)NC(Cc1ccccc1)C(=O)O
SCANS=36902
COLLISION_ENERGY=30.0
MS_MANUFACTURER=Thermo
MS_MASS_ANALYZER=quadrupole
MS_IONISATION=ESI
MS_DISSOCIATION_METHOD=hcd
SPECTRUM_ID=CCMSLIB00003137813
IONMODE=positive
MS_LEVEL=2
PRECURSOR_MZ=352.165
80.264931 1631.977051 
86.09642 3640.3396 
91.054352 7666.821777 
97.065308 1872.127563 
103.054482 4362.320312 
104.008247 2647.14917 
105.070305 2188.127441 
107.049286 2151.877441 
109.244789 1958.957031 
114.934547 2126.933594 
115.054527 4123.465332 
116.070869 2878.291016 
117.057152 9346.348633 
117.069969 9512.581055 
117.987686 9854.224609 
118.065178 3984.868896 
120.080856 139814.4375 
125.071327 2004.156494 
130.065216 378191.21875 
131.049393 2055.224121 
132.00351 6525.763672 
132.080856 269742.84375 
136.076218 7053.621094 
138.054535 1986.343872 
140.029968 9329.097656 
142.065414 13958.548828 
144.080856 453419.625 
146.060104 123088.164062 
158.083649 3414.214111 
159.091858 1107433.25 
160.075974 30353.080078 
161.006012 21385.208984 
162.093491 1896.340698 
164.070862 3878.908203 
165.055359 1934.511841 
166.086624 10794.957031 
170.060104 248153.609375 
172.075409 9644.047852 
175.085968 13102.53418 
176.07016 3890.141602 
178.159348 3995.779297 
187.086319 3094.10498 
188.070801 15027.710938 
191.118439 15750.625977 
192.06546 16542.050781 
193.097687 2156.610107 
219.113647 3060.650879 
221.090057 2514.650635 
232.112167 9700.0625 
234.127731 2864.540039 
237.123627 15015.984375 
239.100464 2174.279053 
242.075958 2306.274658 
244.111374 9122.74707 
261.139008 2862.991943 
262.122833 4240.295898 
267.048462 4171.98291 
268.055054 10082.693359 
286.067261 7794.123535 
289.134186 20087.898438 
293.128418 24329.267578 
295.583252 2227.956787 
307.144196 32525.044922 
308.121735 2652.630371 
309.176483 1911.080688 
322.209045 8674.268555 
324.729309 1995.716553 
334.173096 4240.041504 
335.138885 611419.75 
352.114044 60998.84375 
352.168121 35344.453125 
352.219025 21527.632812 
352.286255 2829.271973 
364.559998 2186.204834 
END IONS

BEGIN IONS
TITLE=CCMSLIB00003139311
PEPMASS=352.165
CHARGE=1+
COMPOUND_NAME=Spectral Match to Phe-Trp from NIST14
ADDUCT=[M+H]1+
SMILES=NC(Cc1ccccc1)C(=O)NC(Cc1c[nH]c2ccccc12)C(=O)O
SCANS=38184
COLLISION_ENERGY=30.0
MS_MANUFACTURER=Thermo
MS_MASS_ANALYZER=quadrupole
MS_IONISATION=ESI
MS_DISSOCIATION_METHOD=hcd
SPECTRUM_ID=CCMSLIB00003139311
IONMODE=positive
MS_LEVEL=2
PRECURSOR_MZ=352.165
74.253105 0.0 
74.253716 0.0 
74.254318 0.0 
84.999222 0.0 
84.999969 0.0 
85.00071 0.0 
85.003685 1324.370239 
85.006615 0.0 
85.007355 0.0 
85.008102 0.0 
103.046303 0.0 
103.047295 0.0 
103.048286 0.0 
103.054245 5838.753906 
103.05925 0.0 
103.060242 0.0 
103.061234 0.0 
109.47403 0.0 
109.475121 0.0 
109.476204 0.0 
109.480553 1671.800903 
109.484871 0.0 
109.485954 0.0 
109.487038 0.0 
112.927132 0.0 
112.928268 0.0 
112.929405 0.0 
112.93396 1325.794434 
112.938515 0.0 
112.939651 0.0 
112.940788 0.0 
113.271675 0.0 
113.27282 0.0 
113.273964 0.0 
113.278542 1496.973145 
113.283234 0.0 
113.284378 0.0 
113.285522 0.0 
120.064796 0.0 
120.06604 0.0 
120.067291 0.0 
120.068535 0.0 
120.081017 293305.1875 
120.088448 5520.590332 
120.093491 0.0 
120.094742 0.0 
120.095985 0.0 
130.055923 0.0 
130.057327 0.0 
130.058731 0.0 
130.065765 5157.063477 
130.072906 0.0 
130.07431 0.0 
130.075714 0.0 
142.531952 0.0 
142.533554 0.0 
142.535172 0.0 
142.541626 1575.6698 
142.548096 0.0 
142.549713 0.0 
142.551315 0.0 
146.046524 0.0 
146.048203 0.0 
146.049866 0.0 
146.059921 19082.794922 
146.069946 0.0 
146.071625 0.0 
146.073303 0.0 
159.076035 0.0 
159.077942 0.0 
159.079849 0.0 
159.091263 13224.676758 
159.103302 0.0 
159.105209 0.0 
159.107117 0.0 
175.067856 0.0 
175.070053 0.0 
175.07225 0.0 
175.087631 15340.597656 
175.09819 0.0 
175.100403 0.0 
175.1026 0.0 
188.039612 0.0 
188.042068 0.0 
188.04451 0.0 
188.071411 181914.828125 
188.088531 3577.202148 
188.096146 0.0 
188.098587 0.0 
188.101044 0.0 
205.067108 0.0 
205.069885 0.0 
205.072678 0.0 
205.097748 112433.703125 
205.117142 3567.626709 
205.122375 0.0 
205.125168 0.0 
205.127945 0.0 
205.130737 0.0 
306.119873 0.0 
306.124939 0.0 
306.130035 0.0 
306.160522 6484.84375 
306.186005 0.0 
306.191101 0.0 
306.196167 0.0 
352.113068 0.0 
352.119324 0.0 
352.12558 0.0 
352.163208 35180.554688 
352.207092 0.0 
352.213348 0.0 
352.219635 0.0 
378.782745 0.0 
378.789734 0.0 
378.796753 0.0 
END IONS

BEGIN IONS
TITLE=CCMSLIB00003140207
PEPMASS=352.165
CHARGE=1+
COMPOUND_NAME=Spectral Match to Trp-Phe from NIST14
ADDUCT=[M+H]1+
SMILES=NC(Cc1c[nH]c2ccccc12)C(=O)NC(Cc1ccccc1)C(=O)O
SCANS=38956
COLLISION_ENERGY=31.0
MS_MANUFACTURER=Bruker Daltonics
MS_MASS_ANALYZER=qtof
MS_IONISATION=ESI
SPECTRUM_ID=CCMSLIB00003140207
IONMODE=positive
MS_LEVEL=2
PRECURSOR_MZ=352.165
86.096558 137.0 
120.079544 164.0 
130.065247 186.0 
132.081192 389.0 
142.064438 100.0 
144.080688 288.0 
146.06012 200.0 
159.092819 902.0 
160.095154 117.0 
170.061615 176.0 
350.231201 193.0 
END IONS

BEGIN IONS
TITLE=CCMSLIB00000425048
PEPMASS=174.113
CHARGE=1+
COMPOUND_NAME=HMDB:HMDB00701-979 Hexanoylglycine
ADDUCT=[M+H]1+
SMILES=CCCCCC(=O)NCC(=O)O
SCANS=813615
COLLISION_ENERGY=25.0
MS_MASS_ANALYZER=quadrupole
SPECTRUM_ID=CCMSLIB00000425048
IONMODE=positive
MS_LEVEL=2
PRECURSOR_MZ=174.113
43.656 100.0 
71.426 26.104 
76.344 12.851 
99.309 3.112 
END IONS

BEGIN IONS
TITLE=CCMSLIB00003139760
PEPMASS=352.166
CHARGE=1+
COMPOUND_NAME=Spectral Match to Trp-Phe from NIST14
ADDUCT=[M+H]1+
SMILES=NC(Cc1c[nH]c2ccccc12)C(=O)NC(Cc1ccccc1)C(=O)O
SCANS=38576
COLLISION_ENERGY=30.0
MS_MANUFACTURER=Thermo
MS_MASS_ANALYZER=quadrupole
MS_IONISATION=ESI
MS_DISSOCIATION_METHOD=hcd
SPECTRUM_ID=CCMSLIB00003139760
IONMODE=positive
MS_LEVEL=2
PRECURSOR_MZ=352.166
50.654274 1061.153931 
55.018532 2333.306396 
55.506638 1146.389404 
56.050102 5558.401367 
59.281746 1300.455933 
60.044926 1684.519653 
61.011364 1591.297485 
67.054474 1546.809326 
68.500877 1367.887329 
69.070328 7429.03125 
70.065559 44448.015625 
71.068619 1285.800293 
72.081177 27172.050781 
74.060379 5264.691895 
77.038879 2465.336182 
81.070274 1968.852173 
82.065308 1928.563354 
84.044594 9000.733398 
84.080917 22311.527344 
86.09668 59831.4375 
87.09967 1949.546265 
89.060249 1574.441772 
91.054428 11463.46582 
93.07032 1784.78125 
95.085419 2657.748047 
97.296532 1224.246582 
99.043915 1378.181396 
101.070892 2339.66748 
102.054695 2516.866455 
103.054337 2861.683594 
104.05294 5825.571289 
105.070412 1749.40332 
107.049171 2197.312744 
107.085983 1929.009644 
109.065048 1853.833008 
109.101364 1841.030273 
110.071381 7221.257812 
115.053993 1760.567627 
116.070892 9528.575195 
117.057388 5174.494141 
117.07 3184.618164 
118.065224 7035.489258 
118.085968 1689.481812 
119.085457 2024.718872 
120.080978 214485.578125 
121.084244 18208.044922 
121.101753 2146.651611 
123.11718 1426.799561 
124.076248 1773.210449 
129.796982 1405.917358 
130.065323 500425.9375 
131.04892 2914.060303 
131.068665 41555.0625 
132.080948 319744.8125 
132.102081 8488.614258 
133.084473 31292.388672 
133.101303 1697.402832 
136.075592 7957.271484 
137.095886 3150.376709 
142.065475 14131.663086 
143.072357 1744.328491 
143.11792 1352.149536 
144.081009 614456.625 
145.084671 58326.617188 
145.101776 2039.948242 
146.060257 162862.453125 
147.04509 1667.130737 
147.063766 13827.323242 
147.112854 1403.472046 
148.540619 1426.296753 
149.059769 5510.555664 
156.079895 1800.354736 
158.084015 3292.919678 
159.091995 1451726.625 
160.075943 33229.703125 
160.09523 149125.640625 
164.070602 2653.450195 
166.086334 18170.853516 
167.089569 1650.206787 
170.060303 316565.1875 
171.063934 36234.128906 
172.076141 13538.848633 
174.055267 5428.339844 
175.087051 16891.009766 
175.122833 1936.760864 
176.071045 5870.480957 
178.088074 1485.154053 
186.078827 1534.396606 
187.086777 10020.53418 
188.070663 20368.138672 
189.074066 1829.571167 
192.065704 25378.974609 
193.086136 1775.214966 
201.124344 1797.666992 
206.081039 5024.088379 
222.112854 1878.12854 
229.156631 1728.257812 
231.282898 1366.36377 
232.112701 7122.277344 
234.128098 7872.568848 
244.11113 4871.373047 
247.122299 5499.3125 
262.123444 5112.470703 
269.190674 5804.971191 
289.133789 15896.478516 
289.191681 2807.96875 
293.128357 21934.673828 
294.131989 1660.334229 
305.210999 1680.063843 
306.15863 2020.245239 
307.143585 35344.226562 
307.19989 2502.234375 
308.146423 6450.654297 
317.134399 1894.331177 
333.206451 2192.400391 
334.210205 2183.626709 
335.139191 538059.4375 
336.142609 122989.976562 
351.179749 2164.631836 
351.232758 3136.770508 
351.494507 1334.100708 
352.161835 20700.074219 
352.239624 1178.447144 
353.162567 9152.350586 
353.202332 10513.274414 
353.239899 2123.179932 
END IONS

BEGIN IONS
TITLE=CCMSLIB00012060396
PEPMASS=402.298
CHARGE=1+
COMPOUND_NAME=Myxalamid B
ADDUCT=[M+H]1+
SMILES=CC(C=CC=CC=CC=C(C)C(=O)NC(C)CO)=CC(C)C(O)C(C)=CC(C)C
SCANS=13625
MS_MASS_ANALYZER=qtof
MS_IONISATION=ESI
SPECTRUM_ID=CCMSLIB00012060396
IONMODE=positive
MS_LEVEL=2
PRECURSOR_MZ=402.298
50.117619 23.0 
55.05452 546.0 
56.781029 23.0 
57.034149 336.0 
57.07016 1161.0 
58.073151 99.0 
59.04958 1.0 
60.04554 387.0 
60.055309 394.0 
62.06649 27.0 
64.918228 26.0 
66.592644 22.0 
67.054359 358.0 
69.069183 272.0 
69.993637 593.0 
70.073143 15.0 
70.991341 150.0 
71.049553 295.0 
71.085472 735.0 
73.065277 2092.0 
73.932022 26.0 
74.068542 79.0 
76.076553 19.0 
77.020363 136.0 
77.038101 146.0 
79.054352 56.0 
79.902397 26.0 
80.056953 30.0 
81.070419 733.0 
82.072594 131.0 
83.049583 71.0 
83.085487 687.0 
85.028313 100.0 
85.064857 454.0 
85.101334 909.0 
87.080307 145.0 
88.074791 19.0 
88.082718 34.0 
89.20639 196.0 
89.2201 194.0 
89.267357 162.0 
89.30191 25.0 
90.506653 723.0 
91.230812 29.0 
92.50386 22.0 
93.070236 346.0 
95.049263 512.0 
95.060066 489.0 
95.085876 1635.0 
97.101624 1862.0 
98.101196 106.0 
99.044533 1051.0 
99.117897 440.0 
99.527687 42.0 
100.969437 95.0 
101.96534 22.0 
102.128777 429.0 
103.040138 0.0 
103.076241 1.0 
103.955841 303.0 
107.049919 1.0 
107.069183 1.0 
107.085388 889.0 
109.066223 0.0 
109.101913 2771.0 
109.559448 27.0 
110.105293 74.0 
111.042847 99.0 
111.117371 839.0 
111.167831 38.0 
112.049408 235.0 
112.119499 197.0 
113.060188 659.0 
113.096336 1131.0 
113.133469 474.0 
113.96096 164.0 
114.053947 147.0 
114.072884 0.0 
114.091789 1.0 
115.039581 30.0 
115.075974 1653.0 
115.112083 0.0 
115.635406 40.0 
115.964256 446.0 
116.048897 0.0 
116.08107 0.0 
116.113037 0.0 
117.069969 0.0 
117.091476 0.0 
117.959381 223.0 
118.087593 0.0 
118.967117 48.0 
119.069328 286.0 
121.102028 1095.0 
122.096489 3264.0 
123.04538 1.0 
123.057747 1851.0 
123.081352 1850.0 
123.117142 1340.0 
124.086739 1030.0 
124.963463 216.0 
125.060249 964.0 
125.070396 1168.0 
125.097153 0.0 
125.133583 407.0 
126.127518 136.0 
126.136833 79.0 
126.968903 63.0 
127.112122 1161.0 
127.149094 484.0 
128.112595 0.0 
128.144669 198.0 
128.963806 104.0 
129.057358 357.0 
129.091232 0.0 
130.066223 765.0 
130.09642 42.0 
130.123291 118.0 
130.159668 7205.0 
131.070709 1.0 
131.086823 1.0 
131.106735 1454.0 
131.163086 595.0 
131.977478 62.0 
132.065048 0.0 
133.100967 453.0 
135.055252 565.0 
136.114059 577.0 
136.457031 90.0 
137.096664 857.0 
137.13298 981.0 
139.017609 126.0 
139.075882 1647.0 
139.112518 1440.0 
139.147278 15.0 
140.080078 226.0 
140.142944 1.0 
140.965958 30.0 
141.05513 247.0 
141.092163 1646.0 
141.128265 1050.0 
141.163101 291.0 
142.060959 218.0 
142.094833 1.0 
142.161575 72.0 
143.071457 452.0 
144.08078 498.0 
144.11145 187.0 
144.175247 192.0 
145.086014 1.0 
145.123108 1255.0 
146.12767 191.0 
147.117065 555.0 
148.082245 1.0 
148.112564 1395.0 
148.96106 59.0 
149.023987 152.0 
149.097412 0.0 
149.133682 681.0 
150.02916 165.0 
150.094894 0.0 
150.131348 311.0 
151.000229 41.0 
151.148926 517.0 
153.091232 2647.0 
154.053818 0.0 
154.073532 397.0 
154.095535 415.0 
154.556931 21.0 
154.97789 39.0 
155.10701 1740.0 
155.146835 2114.0 
155.180511 447.0 
156.081711 306.0 
157.121857 342.0 
157.160065 68.0 
157.974182 129.0 
158.079697 1380.0 
158.096893 1361.0 
158.154724 4903.0 
158.20195 114.0 
158.336441 36.0 
158.379166 29.0 
158.455246 23.0 
158.501724 19.0 
159.049866 1.0 
159.068146 0.0 
159.103043 674.0 
159.115372 917.0 
159.138245 1108.0 
159.1577 863.0 
161.131485 455.0 
161.317245 26.0 
162.111328 452.0 
162.127518 329.0 
162.613434 18.0 
163.038574 1150.0 
163.110947 485.0 
163.130875 1160.0 
163.148834 892.0 
163.586609 47.0 
164.04451 253.0 
164.14978 279.0 
165.112564 1535.0 
165.126587 513.0 
165.16449 597.0 
166.170685 75.0 
167.083633 2232.0 
167.107193 1879.0 
167.144135 430.0 
167.181534 62.0 
169.087036 0.0 
169.123398 2287.0 
169.159317 1211.0 
169.195435 440.0 
170.094254 417.0 
170.123856 335.0 
170.15567 329.0 
170.201233 88.0 
170.596954 59.0 
171.102829 1.0 
171.138779 624.0 
171.592316 47.0 
172.112839 488.0 
172.170959 1536.0 
172.349152 17.0 
173.156097 146.0 
174.12236 38.0 
174.153091 114.0 
174.991272 323.0 
175.015717 44.0 
175.109909 1.0 
175.134476 971.0 
175.146408 739.0 
177.091248 0.0 
177.109955 1539.0 
177.1642 131.0 
177.47702 14.0 
178.058685 181.0 
178.158768 83.0 
178.726196 29.0 
179.064713 494.0 
179.108398 1161.0 
179.143036 963.0 
179.179672 579.0 
179.306763 16.0 
179.351456 23.0 
180.109268 298.0 
181.064713 840.0 
181.086243 744.0 
181.12262 1925.0 
181.158585 1008.0 
182.125198 248.0 
182.160614 258.0 
182.192703 229.0 
182.963181 47.0 
183.138428 2265.0 
183.175476 4964.0 
183.211731 481.0 
183.263779 36.0 
183.289398 50.0 
183.314697 79.0 
183.48819 51.0 
183.512146 76.0 
183.582703 120.0 
184.076294 129.0 
184.108124 131.0 
184.141968 435.0 
184.178741 275.0 
184.986298 269.0 
185.081757 526.0 
185.11705 1.0 
185.154999 2444.0 
185.190765 659.0 
186.158615 584.0 
186.183762 851.0 
186.223251 57.0 
186.995239 120.0 
187.134735 1.0 
187.170135 331.0 
187.225143 25.0 
188.142746 1.0 
188.164642 73.0 
188.185257 92.0 
189.089951 261.0 
189.126022 445.0 
189.146851 772.0 
190.133484 184.0 
190.160889 0.0 
191.108109 419.0 
191.180252 429.0 
191.960388 47.0 
192.111877 145.0 
192.13913 2911.0 
192.18074 256.0 
193.122971 1.0 
193.146896 1.0 
193.19455 701.0 
193.577179 86.0 
193.601166 110.0 
193.702148 22.0 
194.152054 470.0 
194.189468 83.0 
195.176331 1020.0 
196.170639 2603.0 
196.60762 43.0 
196.627777 55.0 
197.081772 189.0 
197.118301 1478.0 
197.154938 5617.0 
197.191376 4777.0 
197.227432 273.0 
197.426849 68.0 
197.582382 223.0 
197.618057 203.0 
197.931931 34.0 
198.127167 350.0 
198.157806 849.0 
198.187149 2254.0 
198.544434 29.0 
198.615112 193.0 
199.097107 575.0 
199.135513 632.0 
199.170044 6366.0 
199.207474 717.0 
199.306717 130.0 
199.344284 45.0 
199.631683 94.0 
200.14006 255.0 
200.17392 746.0 
200.203949 377.0 
200.238647 519.0 
200.508621 24.0 
200.576248 0.0 
201.127289 824.0 
201.149231 602.0 
201.187302 865.0 
202.121674 0.0 
202.149353 161.0 
203.107361 406.0 
203.146713 814.0 
203.18132 252.0 
204.139694 99.0 
204.176117 107.0 
205.121613 840.0 
205.138428 1420.0 
205.158798 971.0 
205.19632 277.0 
206.134628 335.0 
206.198395 68.0 
207.139053 7334.0 
207.160599 7175.0 
207.211884 198.0 
207.537704 7.0 
207.615967 61.0 
207.832031 26.0 
208.163437 742.0 
208.595978 54.0 
209.154953 2418.0 
209.19162 956.0 
210.165176 0.0 
210.194992 191.0 
211.110275 683.0 
211.134613 954.0 
211.170349 5229.0 
211.206375 6181.0 
211.243927 71.0 
211.391083 76.0 
211.490601 99.0 
212.024658 26.0 
212.102646 227.0 
212.12326 456.0 
212.145721 346.0 
212.174454 848.0 
212.209198 872.0 
212.24826 15.0 
212.622833 114.0 
213.11499 0.0 
213.18573 9021.0 
213.220657 868.0 
213.291916 24.0 
213.355591 89.0 
213.374207 95.0 
213.416382 129.0 
213.437057 77.0 
213.50087 40.0 
213.598846 81.0 
213.632278 52.0 
214.040512 11.0 
214.089874 637.0 
214.189941 1135.0 
214.218521 348.0 
214.254074 593.0 
215.126999 0.0 
215.164886 643.0 
215.200668 817.0 
215.258118 75.0 
216.106567 0.0 
216.123611 0.0 
216.162613 33.0 
216.195206 82.0 
217.162155 2076.0 
217.180115 2023.0 
218.168884 351.0 
218.220459 60.0 
219.121048 828.0 
219.13855 656.0 
219.173706 776.0 
219.211533 212.0 
219.616241 125.0 
220.125 527.0 
220.14122 351.0 
220.172302 284.0 
220.207977 150.0 
220.613678 14.0 
221.117126 1.0 
221.154877 699.0 
221.191498 912.0 
221.227051 710.0 
221.401749 48.0 
221.422653 48.0 
221.60672 65.0 
222.149658 519.0 
222.184723 225.0 
222.232361 239.0 
222.523102 21.0 
222.61174 322.0 
223.065125 218.0 
223.098724 459.0 
223.133942 1406.0 
223.1707 2375.0 
223.206314 764.0 
223.541916 16.0 
223.579605 23.0 
224.183899 1328.0 
224.204926 1412.0 
224.61467 96.0 
225.190842 6467.0 
225.221298 2942.0 
225.323242 43.0 
225.377792 39.0 
225.476013 75.0 
225.717758 68.0 
225.849335 24.0 
225.887268 21.0 
226.111176 136.0 
226.152069 146.0 
226.19397 1030.0 
226.224854 442.0 
227.130051 2619.0 
227.165527 1017.0 
227.201935 13517.0 
227.32608 154.0 
227.353912 91.0 
227.394272 25.0 
227.419525 111.0 
227.510559 56.0 
227.608566 92.0 
228.136414 371.0 
228.203674 2656.0 
228.230713 200.0 
228.268295 325.0 
228.511475 23.0 
229.104935 1.0 
229.142151 2118.0 
229.180679 740.0 
229.21434 862.0 
229.651382 75.0 
230.078964 0.0 
230.143875 434.0 
230.212296 475.0 
230.249756 125.0 
230.303589 27.0 
230.65033 35.0 
231.084641 471.0 
231.117828 596.0 
231.140686 667.0 
231.173737 1020.0 
231.194366 871.0 
231.229797 487.0 
231.2509 211.0 
232.088303 263.0 
232.189453 446.0 
232.205399 439.0 
233.11937 217.0 
233.191116 20.0 
234.1586 0.0 
234.192032 167.0 
235.116486 1320.0 
235.135559 1247.0 
235.169861 3087.0 
235.206436 928.0 
236.122864 189.0 
236.172134 639.0 
236.216202 101.0 
237.14888 1270.0 
237.18631 3824.0 
237.221283 994.0 
237.534866 60.0 
237.635483 101.0 
238.146881 1.0 
238.187241 833.0 
238.214539 379.0 
238.640137 61.0 
239.165817 549.0 
239.201691 6648.0 
239.238113 3614.0 
239.298355 81.0 
239.437546 18.0 
239.539444 74.0 
239.635941 9.0 
240.055557 78.0 
240.169907 214.0 
240.205185 1257.0 
240.241638 715.0 
240.746902 54.0 
240.788452 3.0 
241.108856 1004.0 
241.144653 254.0 
241.181168 3742.0 
241.21666 10356.0 
241.249405 791.0 
241.416382 69.0 
241.447769 78.0 
241.531219 73.0 
241.679901 149.0 
241.945435 30.0 
242.105103 73.0 
242.129578 357.0 
242.183548 308.0 
242.220596 1623.0 
242.286377 7044.0 
242.743973 154.0 
242.85701 16.0 
243.013687 15.0 
243.098007 515.0 
243.19632 2799.0 
243.230759 543.0 
243.28891 2817.0 
243.362625 57.0 
243.390671 80.0 
243.426285 109.0 
243.470413 69.0 
243.541916 6.0 
243.589539 75.0 
243.623657 101.0 
243.668488 53.0 
243.824692 9.0 
243.880569 9.0 
244.135162 194.0 
244.166687 150.0 
244.229095 1860.0 
244.264603 937.0 
244.292175 314.0 
244.353882 21.0 
244.629303 78.0 
245.125443 526.0 
245.213562 1481.0 
245.265594 62.0 
246.125244 1.0 
246.154114 0.0 
246.189224 577.0 
246.207779 96.0 
246.250519 195.0 
246.270111 84.0 
247.132156 215.0 
247.169876 758.0 
247.237427 1621.0 
248.138657 225.0 
248.190353 312.0 
248.248123 107.0 
249.114441 244.0 
249.159409 457.0 
249.185715 5601.0 
249.206116 5097.0 
249.258667 377.0 
249.433517 52.0 
249.470001 47.0 
250.14328 64.0 
250.186249 875.0 
250.211807 172.0 
250.265976 98.0 
250.557816 22.0 
251.001709 1160.0 
251.133774 309.0 
251.16571 2853.0 
251.197113 11004.0 
251.274506 295.0 
251.309113 25.0 
251.359421 16.0 
251.399277 25.0 
251.436218 150.0 
251.477036 116.0 
251.519424 69.0 
251.609253 23.0 
251.64975 158.0 
251.669464 144.0 
251.71727 112.0 
251.761246 84.0 
252.203186 2173.0 
252.244614 8.0 
252.997986 713.0 
253.181305 2426.0 
253.217468 18532.0 
253.251221 465.0 
253.290726 2929.0 
253.374817 130.0 
253.407928 187.0 
253.435211 132.0 
253.512009 245.0 
253.548248 167.0 
253.562042 237.0 
253.601318 130.0 
253.70137 156.0 
253.733139 110.0 
253.75415 124.0 
253.799911 64.0 
253.874878 38.0 
254.00032 40.0 
254.07283 48.0 
254.133865 331.0 
254.147644 175.0 
254.183945 595.0 
254.221588 3988.0 
254.29393 409.0 
254.510803 98.0 
254.662903 40.0 
255.124237 307.0 
255.160583 661.0 
255.196808 7216.0 
255.233032 14841.0 
255.294403 229.0 
255.333008 159.0 
255.381577 165.0 
255.408707 115.0 
255.460098 183.0 
255.485764 106.0 
255.557007 139.0 
255.593735 106.0 
255.66217 63.0 
255.674683 145.0 
255.857834 75.0 
256.199524 1585.0 
256.23584 2402.0 
256.263428 1221.0 
256.304657 230.0 
257.117584 453.0 
257.175751 431.0 
257.212494 3279.0 
257.248657 1623.0 
257.357544 66.0 
257.477936 97.0 
257.498779 110.0 
257.691101 60.0 
257.712402 60.0 
258.135223 280.0 
258.150055 328.0 
258.208557 702.0 
258.244629 1093.0 
258.280243 2249.0 
258.367859 58.0 
258.637329 71.0 
258.659576 135.0 
259.164062 524.0 
259.22525 1304.0 
259.244873 1173.0 
259.281219 393.0 
260.12323 175.0 
260.224365 562.0 
261.130066 297.0 
261.151093 425.0 
261.187317 220.0 
261.218933 512.0 
261.478149 13.0 
262.110138 86.0 
262.182159 242.0 
262.228424 400.0 
263.164581 590.0 
263.200104 1057.0 
263.23877 2082.0 
264.167297 358.0 
264.197418 375.0 
265.180634 1933.0 
265.21814 1847.0 
265.253723 1851.0 
265.482422 31.0 
265.994537 16.0 
266.08844 1.0 
266.182434 754.0 
266.22876 1027.0 
266.258728 247.0 
266.497559 24.0 
266.588135 47.0 
266.77243 24.0 
267.095703 0.0 
267.197083 7050.0 
267.233002 6523.0 
267.459564 156.0 
267.504364 75.0 
267.577576 151.0 
267.636444 186.0 
267.667175 132.0 
267.701569 197.0 
267.726013 172.0 
267.755585 152.0 
267.792206 4.0 
267.820892 59.0 
267.839935 74.0 
267.885345 48.0 
268.044586 0.0 
268.116577 27.0 
268.163055 30.0 
268.201385 1542.0 
268.235382 1312.0 
268.338867 53.0 
268.368896 74.0 
268.569946 107.0 
268.631226 5.0 
268.690979 50.0 
269.102814 125.0 
269.213013 24608.0 
269.247375 4466.0 
269.278412 923.0 
269.443146 172.0 
269.474518 18.0 
269.499512 160.0 
269.538391 121.0 
269.588806 136.0 
269.662811 159.0 
269.717224 226.0 
269.735809 159.0 
269.807861 31.0 
269.932556 20.0 
270.183655 344.0 
270.215576 3561.0 
270.244232 1041.0 
270.317139 223.0 
270.664032 97.0 
271.15506 830.0 
271.192474 1928.0 
271.227783 5632.0 
271.260284 324.0 
271.369904 61.0 
271.411987 40.0 
271.447723 93.0 
271.486328 52.0 
271.561096 162.0 
271.67691 73.0 
272.032867 45.0 
272.131714 1.0 
272.156891 214.0 
272.193878 118.0 
272.224274 3659.0 
272.259094 2629.0 
272.296234 958.0 
272.367188 68.0 
272.389587 100.0 
272.46228 50.0 
272.611084 15.0 
272.859253 26.0 
273.111237 101.0 
273.169373 6093.0 
273.24707 1729.0 
273.298248 292.0 
273.532501 83.0 
273.554871 72.0 
273.613403 48.0 
274.052521 1.0 
274.171661 1241.0 
274.240417 594.0 
274.625641 105.0 
274.677612 165.0 
275.043457 20.0 
275.12326 79.0 
275.16626 520.0 
275.201843 1806.0 
276.08667 1.0 
276.159302 239.0 
276.216125 560.0 
276.252991 134.0 
277.179626 1545.0 
277.217316 3962.0 
277.548004 26.0 
277.669647 63.0 
277.720062 28.0 
278.182404 656.0 
278.21994 839.0 
278.242218 814.0 
278.289185 55.0 
279.095428 313.0 
279.159943 4102.0 
279.195923 1531.0 
279.233582 30012.0 
279.392639 114.0 
279.439209 87.0 
279.480804 194.0 
279.519928 192.0 
279.590546 218.0 
279.656677 196.0 
279.690857 202.0 
279.738892 155.0 
279.765167 152.0 
279.797028 120.0 
279.863983 77.0 
279.894989 55.0 
280.043518 58.0 
280.100647 142.0 
280.164398 660.0 
280.197418 289.0 
280.237244 5274.0 
280.303711 85.0 
280.355072 91.0 
280.379578 167.0 
280.458252 43.0 
280.514954 86.0 
280.605743 109.0 
280.650238 115.0 
280.708801 50.0 
280.80072 32.0 
280.835693 21.0 
281.026672 13.0 
281.058563 82.0 
281.176697 1537.0 
281.212433 2465.0 
281.249695 133829.0 
281.759094 97.0 
281.800568 324.0 
281.843475 132.0 
281.909882 134.0 
281.949677 156.0 
281.999115 37.0 
282.057587 78.0 
282.091095 61.0 
282.130615 139.0 
282.174774 211.0 
282.213287 172.0 
282.252563 25642.0 
282.396454 37.0 
282.452667 64.0 
282.493683 80.0 
282.533203 25.0 
282.578888 134.0 
282.615417 144.0 
282.659485 128.0 
282.733063 114.0 
282.834137 74.0 
283.149536 224.0 
283.192078 1452.0 
283.228577 10617.0 
283.265015 49110.0 
283.599274 36.0 
283.624634 26.0 
283.67453 286.0 
283.711578 188.0 
283.749725 36.0 
283.785858 185.0 
283.808716 51.0 
283.855194 81.0 
283.895233 102.0 
283.921844 18.0 
284.005524 8.0 
284.058594 21.0 
284.118073 99.0 
284.158112 267.0 
284.194 520.0 
284.230988 2354.0 
284.268066 8909.0 
284.328217 87.0 
284.407867 64.0 
284.439148 65.0 
284.462799 115.0 
284.556427 68.0 
284.609375 111.0 
284.657867 65.0 
284.735687 30.0 
285.116669 85.0 
285.17392 72.0 
285.207642 4570.0 
285.241913 2535.0 
285.276062 1261.0 
285.357422 26.0 
285.43576 24.0 
285.673096 63.0 
285.761536 50.0 
285.849823 29.0 
286.006958 79.0 
286.162384 43.0 
286.209015 717.0 
286.239563 6948.0 
286.27182 585.0 
286.310181 282.0 
286.364075 60.0 
286.468628 42.0 
286.531616 72.0 
286.615417 22.0 
286.676788 184.0 
286.820648 22.0 
287.153351 368.0 
287.186584 281.0 
287.222382 2243.0 
287.241547 2700.0 
287.650085 26.0 
287.69455 31.0 
287.721649 13.0 
288.02948 45.0 
288.151367 173.0 
288.219513 459.0 
288.255157 1276.0 
288.488739 30.0 
289.17926 213.0 
289.238495 1946.0 
289.396912 21.0 
289.563049 30.0 
290.128723 55.0 
290.195892 77.0 
290.235413 1323.0 
290.270691 165.0 
290.630676 46.0 
290.726654 57.0 
290.946045 60.0 
291.123047 1.0 
291.19577 3829.0 
291.254791 4904.0 
291.436279 64.0 
291.483063 58.0 
292.19928 1226.0 
292.257965 893.0 
292.300415 52.0 
293.176605 850.0 
293.212738 14746.0 
293.289581 202.0 
293.340729 161.0 
293.40744 137.0 
293.47702 52.0 
293.5242 113.0 
293.604706 99.0 
293.670532 18.0 
293.720917 85.0 
293.743073 92.0 
293.864563 13.0 
294.216644 2852.0 
294.31662 1117.0 
294.349274 58.0 
294.485016 29.0 
294.564758 37.0 
294.646088 28.0 
294.681885 43.0 
295.191589 984.0 
295.228607 34978.0 
295.553009 149.0 
295.574493 187.0 
295.628113 103.0 
295.673309 277.0 
295.69278 253.0 
295.733002 10.0 
295.778839 84.0 
295.806 77.0 
295.837616 97.0 
295.873566 160.0 
296.029419 39.0 
296.072571 98.0 
296.09729 133.0 
296.181763 659.0 
296.232239 7060.0 
296.351379 110.0 
296.404388 141.0 
296.434143 98.0 
296.469086 78.0 
296.52356 75.0 
296.571106 92.0 
296.610291 97.0 
296.627625 88.0 
296.681488 87.0 
296.829376 21.0 
297.176239 829.0 
297.207642 1404.0 
297.244598 109145.0 
297.703979 111.0 
297.760162 135.0 
297.841431 189.0 
297.88681 122.0 
297.94104 31.0 
298.062042 101.0 
298.151276 195.0 
298.176849 405.0 
298.210358 720.0 
298.247742 21993.0 
298.309906 138.0 
298.351532 186.0 
298.405487 130.0 
298.437805 107.0 
298.501343 143.0 
298.524872 177.0 
298.621002 88.0 
299.068481 78.0 
299.188141 572.0 
299.222687 2331.0 
299.259399 20636.0 
299.370972 142.0 
299.429382 39.0 
299.498596 81.0 
299.53363 70.0 
299.582153 102.0 
299.619629 184.0 
299.814423 45.0 
299.920654 65.0 
299.935364 68.0 
300.113953 203.0 
300.15741 59.0 
300.189575 363.0 
300.220306 273.0 
300.261139 4651.0 
300.291046 16111.0 
300.358704 144.0 
300.384949 2.0 
300.459625 155.0 
300.495667 169.0 
300.517548 172.0 
300.553802 92.0 
300.61322 32.0 
300.651611 88.0 
300.692841 97.0 
300.765503 96.0 
300.819519 152.0 
300.897278 51.0 
300.99176 47.0 
301.077942 0.0 
301.128174 1204.0 
301.236938 947.0 
301.275146 7302.0 
301.291779 7332.0 
301.492279 109.0 
301.612244 65.0 
301.651062 115.0 
301.704437 94.0 
302.13208 278.0 
302.157562 109.0 
302.202087 416.0 
302.233948 2979.0 
302.272522 1243.0 
302.299683 822.0 
302.374847 75.0 
302.469666 79.0 
302.492523 81.0 
302.557922 57.0 
302.618378 56.0 
302.906494 9.0 
303.095062 88.0 
303.117218 1.0 
303.15274 306.0 
303.193909 249.0 
303.245544 1620.0 
303.298645 268.0 
304.082642 79.0 
304.104218 70.0 
304.140594 117.0 
304.173615 373.0 
304.212646 1046.0 
304.249695 6196.0 
304.38913 105.0 
304.533295 22.0 
304.580383 65.0 
304.712158 143.0 
305.104858 25.0 
305.134979 73.0 
305.177002 719.0 
305.213837 1368.0 
305.249054 7869.0 
305.304565 122.0 
305.543671 102.0 
305.590149 93.0 
305.693115 165.0 
306.209717 97.0 
306.265289 7181.0 
306.335541 81.0 
306.631714 126.0 
306.683197 36.0 
307.152496 172.0 
307.191315 2439.0 
307.262177 1648.0 
307.322266 39.0 
307.433594 124.0 
307.565216 81.0 
308.1586 154.0 
308.200348 597.0 
308.221802 356.0 
308.246735 755.0 
308.281891 4856.0 
308.480103 23.0 
308.508484 48.0 
308.536194 49.0 
308.682007 37.0 
309.121887 92.0 
309.17099 1577.0 
309.28186 2177.0 
309.325134 124.0 
309.398285 89.0 
309.434418 108.0 
309.455536 117.0 
309.485168 96.0 
309.518646 149.0 
309.562866 113.0 
309.603241 94.0 
309.635559 30.0 
309.686188 58.0 
309.748383 82.0 
309.793182 35.0 
309.821991 6.0 
310.173462 337.0 
310.283417 498.0 
310.502625 58.0 
310.908051 17.0 
311.123627 0.0 
311.187317 9228.0 
311.222931 23979.0 
311.256561 4288.0 
311.376068 88.0 
311.427765 173.0 
311.463043 261.0 
311.497314 156.0 
311.52652 221.0 
311.581085 225.0 
311.604858 239.0 
311.658264 223.0 
311.696777 137.0 
311.735321 164.0 
311.76416 270.0 
311.815247 145.0 
311.856262 167.0 
311.895355 87.0 
311.929626 79.0 
311.972321 22.0 
312.118652 142.0 
312.144745 95.0 
312.190338 2154.0 
312.227081 4911.0 
312.254272 1745.0 
312.33963 111.0 
312.373199 90.0 
312.420868 96.0 
312.479279 112.0 
312.531738 52.0 
312.597931 122.0 
312.681549 92.0 
312.82193 24.0 
313.200714 1388.0 
313.2388 20287.0 
313.429718 254.0 
313.486908 86.0 
313.55011 54.0 
313.642914 138.0 
313.706024 105.0 
313.737366 182.0 
313.758423 93.0 
313.8349 84.0 
313.866333 96.0 
313.899353 36.0 
314.13736 66.0 
314.207886 575.0 
314.241577 4440.0 
314.271271 72252.0 
314.712067 60.0 
314.756378 188.0 
314.774872 279.0 
314.817169 39.0 
314.873749 83.0 
314.974579 31.0 
315.014191 48.0 
315.12793 101.0 
315.272736 14002.0 
315.38089 23.0 
315.424255 5.0 
315.473938 20.0 
315.533051 122.0 
315.558624 124.0 
315.59671 47.0 
315.631195 5.0 
315.690521 291.0 
316.014404 3.0 
316.213318 72.0 
316.250366 3053.0 
316.285065 5304.0 
316.322723 2908.0 
316.504333 120.0 
316.546722 107.0 
316.573456 122.0 
316.610413 150.0 
316.648956 94.0 
316.72467 108.0 
316.774475 40.0 
316.850189 43.0 
317.139465 88.0 
317.213928 1477.0 
317.269409 3461.0 
317.287598 3460.0 
317.327179 726.0 
317.497406 91.0 
317.613922 30.0 
317.862915 23.0 
318.165344 84.0 
318.192932 109.0 
318.229828 1583.0 
318.265869 2791.0 
318.598267 115.0 
318.617767 80.0 
319.148224 228.0 
319.191132 469.0 
319.22641 25729.0 
319.38681 78.0 
319.474548 106.0 
319.512085 94.0 
319.564301 35.0 
319.593292 67.0 
319.690918 182.0 
319.716675 161.0 
319.765747 106.0 
319.85437 90.0 
320.147278 63.0 
320.23175 5464.0 
320.333466 36.0 
321.169922 245.0 
321.207153 1620.0 
321.242096 15726.0 
321.406403 45.0 
321.490906 115.0 
321.629272 99.0 
321.678741 159.0 
321.71286 209.0 
321.727539 148.0 
322.076935 35.0 
322.177124 241.0 
322.206177 176.0 
322.247131 2996.0 
322.693665 57.0 
323.124573 71.0 
323.153503 175.0 
323.186707 301.0 
323.220398 1982.0 
323.257019 1739.0 
323.309174 136.0 
323.441864 8.0 
323.690735 83.0 
323.733551 23.0 
324.189667 293.0 
324.278564 1072.0 
324.342255 37.0 
324.648834 53.0 
324.704865 6.0 
325.11142 1.0 
325.134888 171.0 
325.203094 1628.0 
325.237885 2150.0 
325.273834 1514.0 
325.324097 1.0 
325.424103 21.0 
325.475494 79.0 
325.535736 8.0 
325.661926 17.0 
325.727203 98.0 
326.12616 196.0 
326.587189 46.0 
326.614624 55.0 
326.704773 119.0 
326.90271 17.0 
326.931335 47.0 
326.954163 56.0 
327.010132 16217.0 
327.222351 4775.0 
327.353333 104.0 
327.405121 186.0 
327.43988 152.0 
327.50882 108.0 
327.546936 100.0 
327.592163 45.0 
327.64505 90.0 
327.673279 59.0 
327.713226 100.0 
327.749939 47.0 
327.838104 1.0 
327.882996 10.0 
327.926636 15.0 
328.013275 1301.0 
328.14978 126.0 
328.215118 3985.0 
328.250366 18445.0 
328.323273 663.0 
328.457214 54.0 
328.521973 176.0 
328.57251 170.0 
328.620209 110.0 
328.68042 183.0 
328.731293 162.0 
328.767242 124.0 
328.823944 53.0 
328.872589 88.0 
328.919617 47.0 
329.007477 15309.0 
329.252777 60989.0 
329.697296 19.0 
329.746826 33.0 
329.850861 120.0 
329.895081 117.0 
329.949646 214.0 
329.967468 175.0 
330.010986 1766.0 
330.110809 67.0 
330.194153 331.0 
330.263092 24608.0 
330.336212 507.0 
330.384491 142.0 
330.454437 188.0 
330.497864 181.0 
330.529846 80.0 
330.581116 106.0 
330.636261 192.0 
330.662781 235.0 
330.740509 251.0 
330.791748 140.0 
330.826477 166.0 
330.85257 128.0 
330.904663 63.0 
330.953644 94.0 
331.004303 4761.0 
331.110748 67.0 
331.211487 358.0 
331.266846 8090.0 
331.341461 71.0 
331.379425 134.0 
331.430054 106.0 
331.465515 82.0 
331.50119 63.0 
331.536133 196.0 
331.571381 77.0 
331.622742 117.0 
331.670746 137.0 
331.71933 96.0 
332.008453 474.0 
332.069794 59.0 
332.152618 118.0 
332.24646 2239.0 
332.281677 48744.0 
332.550812 41.0 
332.607239 344.0 
332.652649 385.0 
332.699036 188.0 
332.74881 117.0 
332.774384 130.0 
332.807739 77.0 
332.844604 159.0 
332.886688 86.0 
332.950806 123.0 
332.966217 76.0 
333.002441 570.0 
333.055206 80.0 
333.170013 930.0 
333.20517 12722.0 
333.283752 9972.0 
333.370758 46.0 
333.439667 67.0 
333.506378 128.0 
333.552032 169.0 
333.597137 51.0 
333.629974 34.0 
333.679199 167.0 
333.70224 56.0 
333.745667 158.0 
333.76712 157.0 
333.801453 87.0 
333.851135 130.0 
333.874207 135.0 
333.927002 88.0 
333.972412 71.0 
334.176086 216.0 
334.20932 2759.0 
334.287994 2502.0 
334.380157 79.0 
334.447632 42.0 
334.534698 38.0 
334.596252 10.0 
334.68219 95.0 
334.699615 111.0 
334.753326 142.0 
334.846313 21.0 
335.096863 80.0 
335.115112 52.0 
335.151123 198.0 
335.221069 13019.0 
335.281464 2788.0 
335.37381 165.0 
335.408173 117.0 
335.482391 131.0 
335.554138 183.0 
335.575287 116.0 
335.608826 155.0 
335.651184 74.0 
335.681274 119.0 
335.720734 236.0 
335.76947 204.0 
336.146149 72.0 
336.224609 2279.0 
336.278625 643.0 
336.487579 110.0 
336.723907 214.0 
336.743286 204.0 
337.201599 67.0 
337.237305 16575.0 
337.310699 380.0 
337.334015 377.0 
337.400879 167.0 
337.551331 84.0 
337.618164 183.0 
337.816681 47.0 
338.172699 86.0 
338.240448 3096.0 
338.674652 34.0 
338.711243 33.0 
339.104675 54.0 
339.151917 42.0 
339.180847 64.0 
339.217529 657.0 
339.253387 3463.0 
339.290588 319.0 
339.641479 22.0 
339.701843 43.0 
340.096802 82.0 
340.214172 477.0 
340.254913 76.0 
341.020386 31.0 
341.101166 164.0 
341.159485 107.0 
341.21756 111.0 
341.271027 877.0 
341.314667 50.0 
341.604065 6.0 
341.76358 65.0 
342.083069 52.0 
342.106079 84.0 
342.154144 151.0 
342.263763 632.0 
342.299774 1123.0 
342.337402 207.0 
342.382202 9.0 
342.426056 16.0 
342.734924 94.0 
342.938385 14.0 
343.232178 17078.0 
343.297302 2171.0 
343.488708 144.0 
343.544006 169.0 
343.575378 128.0 
343.603485 189.0 
343.637726 137.0 
343.662872 84.0 
343.706543 249.0 
343.784241 99.0 
343.835785 36.0 
343.858124 75.0 
343.934662 53.0 
343.998505 69.0 
344.034393 260.0 
344.124878 78.0 
344.243591 9949.0 
344.27774 3143.0 
344.316162 759.0 
344.350067 93.0 
344.420959 124.0 
344.445709 120.0 
344.479767 162.0 
344.524963 166.0 
344.563995 59.0 
344.633759 71.0 
344.662384 29.0 
344.70517 100.0 
344.763214 3.0 
344.810699 112.0 
344.829376 103.0 
344.857452 63.0 
344.917145 35.0 
345.133789 82.0 
345.170837 67.0 
345.734283 157.0 
345.7771 219.0 
345.806427 42.0 
345.834717 162.0 
345.867584 144.0 
345.962708 66.0 
345.989502 37.0 
346.035248 335.0 
346.093323 25.0 
346.259735 24152.0 
346.535492 65.0 
346.583923 105.0 
346.633606 184.0 
346.691528 42.0 
346.776306 20.0 
346.846436 37.0 
346.895935 40.0 
347.045288 30.0 
347.185669 651.0 
347.263 12164.0 
347.394501 129.0 
347.441559 67.0 
347.467041 83.0 
347.504395 159.0 
347.546417 101.0 
347.567627 129.0 
347.597931 82.0 
347.692627 45.0 
347.731323 67.0 
347.839447 32.0 
347.89386 97.0 
347.947968 35.0 
348.028412 64.0 
348.122498 19.0 
348.164825 211.0 
348.194489 54.0 
348.274261 6250.0 
348.368835 62.0 
348.400757 71.0 
348.425446 57.0 
348.456787 42.0 
348.509155 91.0 
348.545898 40.0 
348.616241 97.0 
348.661224 31.0 
348.704803 125.0 
348.772583 130.0 
348.791931 94.0 
348.868195 81.0 
348.991486 190.0 
349.104248 0.0 
349.200073 4184.0 
349.273193 1659.0 
349.335022 16.0 
349.367523 125.0 
349.388977 96.0 
349.445648 92.0 
349.466522 91.0 
349.516479 147.0 
349.561798 49.0 
349.66629 28.0 
349.696289 39.0 
349.742889 85.0 
349.997925 25.0 
350.204102 893.0 
350.232697 368.0 
350.724609 184.0 
350.744659 178.0 
350.986694 204.0 
351.216553 14148.0 
351.370026 71.0 
351.399841 99.0 
351.443451 37.0 
351.477875 47.0 
351.511841 191.0 
351.559235 150.0 
351.586517 23.0 
351.719482 105.0 
351.787476 23.0 
351.987732 44.0 
352.176453 200.0 
352.218079 2807.0 
352.248444 679.0 
352.3078 9347.0 
352.382751 85.0 
352.436707 164.0 
352.476349 54.0 
352.634155 38.0 
352.718323 156.0 
352.876587 45.0 
352.930817 26.0 
352.982513 120.0 
353.185608 101.0 
353.231567 3530.0 
353.26828 406.0 
353.312012 1393.0 
353.567566 91.0 
353.63092 88.0 
353.705109 71.0 
353.725647 123.0 
354.160156 147.0 
354.236511 981.0 
354.285065 1326.0 
354.312164 733.0 
354.506683 32.0 
354.73111 31.0 
355.130524 1.0 
355.160065 146.0 
355.181244 246.0 
355.249176 538.0 
355.290833 574.0 
356.107513 110.0 
356.140198 28.0 
356.174042 31.0 
356.221649 533.0 
356.281586 23624.0 
356.34964 436.0 
356.453064 121.0 
356.486481 127.0 
356.561523 123.0 
356.592041 197.0 
356.614868 213.0 
356.653168 158.0 
356.74588 192.0 
356.79599 146.0 
356.815674 186.0 
357.264862 17708.0 
357.283478 17728.0 
357.354462 176.0 
357.410278 27.0 
357.446106 42.0 
357.538147 200.0 
357.581604 64.0 
357.652466 101.0 
357.672607 82.0 
357.709412 26.0 
357.810486 81.0 
357.943848 110.0 
358.013855 27.0 
358.188599 300.0 
358.224762 124.0 
358.264282 3148.0 
358.287781 4516.0 
358.357697 133.0 
358.598114 122.0 
358.61438 124.0 
358.763031 70.0 
359.014984 89.0 
359.121307 77.0 
359.2966 609.0 
359.36911 185.0 
359.509094 84.0 
359.605713 57.0 
360.201691 671.0 
360.23877 28.0 
360.276184 3104.0 
360.311951 2366.0 
360.385864 92.0 
360.501373 12.0 
360.585052 21.0 
360.631348 74.0 
360.684753 94.0 
360.769745 91.0 
360.989258 73.0 
361.024719 37.0 
361.174103 209.0 
361.240021 12806.0 
361.297363 1746.0 
361.341461 50.0 
361.375824 106.0 
361.41217 184.0 
361.497101 198.0 
361.558044 199.0 
361.582275 308.0 
361.604126 285.0 
361.677551 148.0 
361.721741 70.0 
361.754883 17.0 
361.787659 173.0 
361.881012 121.0 
361.933533 83.0 
362.03891 55.0 
362.168152 155.0 
362.254791 6212.0 
362.380493 83.0 
362.401398 109.0 
362.586426 57.0 
362.624451 86.0 
362.669617 120.0 
362.689972 112.0 
362.919678 46.0 
363.18277 86.0 
363.216522 667.0 
363.256531 1441.0 
363.308014 560.0 
363.410919 34.0 
363.510315 45.0 
363.56781 19.0 
363.615051 28.0 
363.730591 68.0 
363.769592 59.0 
363.842682 27.0 
364.119873 147.0 
364.132172 89.0 
364.18103 83.0 
364.27121 29472.0 
364.287292 29426.0 
364.422638 80.0 
364.451141 181.0 
364.475769 256.0 
364.529999 198.0 
364.562561 212.0 
364.599152 88.0 
364.645538 173.0 
364.669891 235.0 
364.733795 63.0 
364.777985 105.0 
364.807739 157.0 
364.862122 25.0 
364.895752 78.0 
364.91626 46.0 
364.990509 85.0 
365.196991 799.0 
365.230133 1390.0 
365.284332 2998.0 
365.429443 117.0 
365.467102 43.0 
365.533569 35.0 
365.582489 73.0 
365.611694 56.0 
365.678986 42.0 
365.732697 63.0 
365.798096 156.0 
366.170685 203.0 
366.200104 160.0 
366.234802 155.0 
366.292908 1222.0 
366.590179 56.0 
366.742981 200.0 
367.135254 286.0 
367.2099 1738.0 
367.245667 1584.0 
367.372528 53.0 
367.408478 70.0 
367.468536 30.0 
367.505524 67.0 
367.590088 83.0 
367.612335 84.0 
367.747528 243.0 
368.0914 33.0 
368.143768 50.0 
368.2341 1151.0 
368.307404 414.0 
368.694824 84.0 
368.76886 130.0 
369.115143 0.0 
369.135773 80.0 
369.236694 10185.0 
369.303833 542.0 
369.3508 100.0 
369.412903 8.0 
369.606781 68.0 
369.629913 142.0 
369.768463 190.0 
369.789001 111.0 
370.1586 139.0 
370.296906 428.0 
370.332001 279.0 
370.441223 58.0 
370.611511 18.0 
371.263763 775.0 
371.333801 844.0 
372.097504 35.0 
372.23468 257.0 
372.2789 1243.0 
372.347076 220.0 
373.199066 822.0 
373.242065 125.0 
373.279053 1604.0 
374.086975 35.0 
374.185364 314.0 
374.257904 493.0 
374.291534 1954.0 
374.364319 232.0 
374.646149 23.0 
375.170471 177.0 
375.255585 559.0 
375.293762 1214.0 
375.668457 49.0 
375.78067 3.0 
376.269806 1417.0 
376.307068 1629.0 
376.999115 27.0 
377.162323 213.0 
377.236023 2443.0 
377.272003 766.0 
377.30722 471.0 
377.591034 23.0 
378.188141 235.0 
378.269928 11522.0 
378.323761 17309.0 
378.444824 58.0 
378.485596 32.0 
378.535004 124.0 
378.561249 62.0 
378.587921 11.0 
378.630859 145.0 
378.69754 151.0 
378.731567 95.0 
378.762817 59.0 
378.794128 46.0 
378.842651 117.0 
378.86908 37.0 
378.911316 44.0 
378.942352 18.0 
378.978058 31.0 
379.15036 457.0 
379.211731 626.0 
379.271362 4643.0 
379.325531 2915.0 
379.396667 39.0 
379.450073 19.0 
379.490326 49.0 
379.577698 95.0 
379.664978 49.0 
379.78186 69.0 
379.8927 117.0 
379.93158 40.0 
380.156128 145.0 
380.272217 1160.0 
380.334961 1228.0 
380.425232 27.0 
380.740753 29.0 
380.875458 19.0 
381.227844 381.0 
381.265747 1219.0 
381.304443 467.0 
381.333527 38.0 
381.752411 79.0 
382.092712 38.0 
382.337006 83.0 
382.733582 12.0 
382.768188 48.0 
383.046783 25.0 
383.147034 70.0 
383.224579 13191.0 
383.281982 6177.0 
383.470642 82.0 
383.51825 116.0 
383.607452 154.0 
383.652679 105.0 
383.687744 136.0 
383.78299 40.0 
383.8237 118.0 
383.949463 54.0 
384.104767 511.0 
384.227142 3462.0 
384.404175 44.0 
384.632751 18.0 
384.724579 8.0 
384.80246 20.0 
385.048431 78.0 
385.240356 2971.0 
385.427246 87.0 
385.449402 80.0 
385.610687 68.0 
385.914764 24.0 
386.249054 1263.0 
386.289948 363.0 
386.32724 214.0 
386.363617 66.0 
386.608246 50.0 
387.04599 61.0 
387.296326 185.0 
387.403259 43.0 
387.514282 18.0 
387.739563 54.0 
387.766571 73.0 
388.092621 23.0 
388.141571 61.0 
388.278717 1120.0 
388.341553 337.0 
388.735901 23.0 
389.111237 208.0 
389.128113 202.0 
389.195801 123.0 
390.118073 181.0 
390.172546 72.0 
390.212799 126.0 
390.289948 1393.0 
390.753418 47.0 
391.112854 31.0 
391.172119 134.0 
391.215393 694.0 
391.249725 426.0 
391.29245 608.0 
392.118652 61.0 
392.178986 195.0 
392.307129 3027.0 
392.492462 53.0 
392.773865 18.0 
393.304199 741.0 
393.74707 52.0 
393.793793 46.0 
393.992981 41.0 
394.187988 199.0 
394.263855 1968.0 
394.316559 301.0 
394.407654 38.0 
395.242432 389.0 
395.271912 465.0 
395.753632 7.0 
396.045502 50.0 
396.279877 3687.0 
396.334045 18532.0 
396.520233 89.0 
396.568695 151.0 
396.597931 162.0 
396.629517 65.0 
396.665283 127.0 
396.711914 104.0 
396.787933 136.0 
396.839691 114.0 
396.889557 106.0 
396.977814 45.0 
397.018951 19.0 
397.10849 92.0 
397.258972 2821.0 
397.27774 2934.0 
397.337433 3899.0 
397.53537 72.0 
397.570953 70.0 
397.594635 118.0 
397.658142 94.0 
397.722626 77.0 
397.797943 93.0 
397.835815 40.0 
397.899139 74.0 
398.057159 37.0 
398.150421 21.0 
398.21579 176.0 
398.280457 440.0 
398.338379 829.0 
398.722137 43.0 
399.042847 24.0 
399.146942 71.0 
399.217712 1715.0 
399.26593 715.0 
399.293488 752.0 
399.618927 30.0 
399.769867 63.0 
400.096863 56.0 
400.228973 511.0 
400.265381 232.0 
400.308014 34450.0 
400.482605 87.0 
400.52655 18.0 
400.590729 213.0 
400.649536 193.0 
400.715973 140.0 
400.741943 152.0 
400.800232 128.0 
400.873535 70.0 
400.89856 101.0 
400.9888 73.0 
401.012054 133.0 
401.1073 88.0 
401.171783 219.0 
401.236481 1751.0 
401.294067 20014.0 
401.416016 91.0 
401.492432 90.0 
401.574219 108.0 
401.600616 174.0 
401.667572 255.0 
401.686554 271.0 
401.751953 84.0 
401.781006 148.0 
401.827301 96.0 
401.865601 79.0 
401.949432 62.0 
402.059875 59.0 
402.135437 72.0 
402.23587 572.0 
402.295685 4173.0 
402.357117 234.0 
402.401794 132.0 
402.441467 111.0 
402.5065 95.0 
402.710663 48.0 
402.754089 57.0 
END IONS

BEGIN IONS
TITLE=CCMSLIB00000847443
PEPMASS=180.102
CHARGE=1+
COMPOUND_NAME=NCGC00169064-02!N-[2-(4-hydroxyphenyl)ethyl]acetamide
ADDUCT=[M+H]1+
SMILES=CC(=O)NCCc1ccc(O)cc1
SCANS=21180
MS_MANUFACTURER=Bruker Daltonics
MS_MASS_ANALYZER=qtof
MS_IONISATION=ESI
SPECTRUM_ID=CCMSLIB00000847443
IONMODE=positive
MS_LEVEL=2
PRECURSOR_MZ=180.102
73.068657 230.0 
77.037216 2280.0 
78.042122 251.0 
79.055229 269.0 
82.823418 170.0 
91.054108 8774.0 
92.055435 530.0 
92.557854 138.0 
93.069328 3346.0 
94.072548 270.0 
95.028168 127.0 
95.049423 8211.0 
96.052551 264.0 
102.045815 570.0 
102.785446 223.0 
103.053902 12954.0 
103.098351 181.0 
103.510193 236.0 
103.756332 76.0 
104.060661 405.0 
104.35289 80.0 
104.809914 139.0 
105.04438 18026.0 
106.036499 383.0 
118.06353 156.0 
119.046585 200.0 
120.041298 174.0 
120.058853 263.0 
120.515068 147.0 
120.553917 157.0 
120.661102 147.0 
120.849289 81.0 
121.064453 31908.0 
121.22509 66.0 
121.438622 137.0 
122.06974 703.0 
122.933479 132.0 
138.090378 1019.0 
180.100845 357.0 
1744.755737 282.0 
1792.440796 124.0 
1945.610596 288.0 
END IONS

BEGIN IONS
TITLE=CCMSLIB00006122259
PEPMASS=160.097
CHARGE=1+
COMPOUND_NAME=Isovaleroylglycine - 30.0 eV
ADDUCT=[M+H]1+
SMILES=CC(C)CC(=O)NCC(=O)O
SCANS=822462
MS_MANUFACTURER=Thermo
MS_MASS_ANALYZER=orbitrap
MS_IONISATION=ESI
SPECTRUM_ID=CCMSLIB00006122259
IONMODE=positive
MS_LEVEL=2
PRECURSOR_MZ=160.097
57.069801 2652119.0 
57.072701 978186.375 
76.033699 7536812.0 
76.039101 214109200.0 
76.044502 30758180.0 
76.047203 7747743.0 
85.0644 5777952.0 
92.450798 1022375.0 
114.324402 908562.375 
128.326797 1408451.0 
142.086197 23302330.0 
167.342606 933745.8125 
END IONS

BEGIN IONS
TITLE=CCMSLIB00006122266
PEPMASS=160.097
CHARGE=1+
COMPOUND_NAME=Isovaleroylglycine - 40.0 eV
ADDUCT=[M+H]1+
SMILES=CC(C)CC(=O)NCC(=O)O
SCANS=822465
MS_MANUFACTURER=Thermo
MS_MASS_ANALYZER=orbitrap
MS_IONISATION=ESI
SPECTRUM_ID=CCMSLIB00006122266
IONMODE=positive
MS_LEVEL=2
PRECURSOR_MZ=160.097
53.013199 24601.439453 
55.0541 16735.0 
55.654099 8001.589844 
56.049198 11813.799805 
57.069599 5376449.0 
58.028801 10207.089844 
59.4566 7948.350098 
76.039001 2324217.0 
79.980499 8418.280273 
85.0644 1196760.0 
95.692101 8273.570312 
114.090599 9168.969727 
121.460999 8064.129883 
160.095596 13137.830078 
173.498993 15924.269531 
173.513596 15681.679688 
END IONS

BEGIN IONS
TITLE=CCMSLIB00006122267
PEPMASS=160.097
CHARGE=1+
COMPOUND_NAME=Isovaleroylglycine - 40.0 eV
ADDUCT=[M+H]1+
SMILES=CC(C)CC(=O)NCC(=O)O
SCANS=822466
MS_MANUFACTURER=Thermo
MS_MASS_ANALYZER=orbitrap
MS_IONISATION=ESI
SPECTRUM_ID=CCMSLIB00006122267
IONMODE=positive
MS_LEVEL=2
PRECURSOR_MZ=160.097
51.5373 7257.680176 
53.013199 24449.939453 
55.054001 11826.419922 
56.048801 8449.490234 
57.069599 5379921.0 
60.978901 8454.070312 
76.039001 2392276.0 
85.064499 1238245.0 
91.433296 7981.930176 
107.902603 8240.660156 
160.095596 14185.75 
173.498093 14870.919922 
173.514694 17047.460938 
182.873199 8391.040039 
END IONS

BEGIN IONS
TITLE=CCMSLIB00006122271
PEPMASS=160.097
CHARGE=1+
COMPOUND_NAME=Isovaleroylglycine - 40.0 eV
ADDUCT=[M+H]1+
SMILES=CC(C)CC(=O)NCC(=O)O
SCANS=822468
MS_MANUFACTURER=Thermo
MS_MASS_ANALYZER=orbitrap
MS_IONISATION=ESI
SPECTRUM_ID=CCMSLIB00006122271
IONMODE=positive
MS_LEVEL=2
PRECURSOR_MZ=160.097
53.0131 31228.060547 
55.054001 9385.240234 
57.069599 5607082.0 
60.017601 8403.950195 
64.049698 9550.580078 
66.339401 7640.75 
67.114502 7567.22998 
71.337799 11091.599609 
76.039001 2361707.0 
82.065498 7657.810059 
85.064499 1201397.0 
114.090897 10223.969727 
160.097305 14925.830078 
165.956299 8391.80957 
173.512497 12417.55957 
END IONS

BEGIN IONS
TITLE=CCMSLIB00011906001
PEPMASS=180.102
CHARGE=1+
COMPOUND_NAME=N-Acetyl-tyramine
ADDUCT=[M+H]1+
SMILES=CC(=O)NCCc1ccc(O)cc1
SCANS=128457
COLLISION_ENERGY=35.0
MS_MANUFACTURER=Thermo
MS_MASS_ANALYZER=orbitrap
MS_IONISATION=ESI
MS_DISSOCIATION_METHOD=hcd
SPECTRUM_ID=CCMSLIB00011906001
IONMODE=positive
MS_LEVEL=2
PRECURSOR_MZ=180.102
51.024189 35682.1875 
53.039444 82686.875 
55.018627 52783.949219 
58.653343 27916.023438 
60.045006 204777.453125 
62.297997 31193.515625 
65.039696 47365.730469 
74.097336 30699.347656 
77.039032 171413.3125 
78.047516 35120.226562 
86.06044 170941.265625 
91.054634 1129274.375 
93.070274 3581193.0 
95.049492 261807.78125 
103.04657 42355.484375 
103.054535 1284545.25 
105.045006 90927.085938 
120.991821 41995.972656 
121.044006 597618.875 
121.048378 334286.125 
121.064835 82593800.0 
121.081192 641467.4375 
121.085129 584698.9375 
121.091492 413992.09375 
122.067879 98527.476562 
138.091309 4354125.5 
148.603653 47762.761719 
152.106049 40185.398438 
180.101746 1497950.375 
180.115982 23330.681641 
END IONS

BEGIN IONS
TITLE=CCMSLIB00000426918
PEPMASS=160.097
CHARGE=1+
COMPOUND_NAME=HMDB:HMDB00678-941 Isovalerylglycine
ADDUCT=[M+H]1+
SMILES=CC(C)CC(=O)NCC(=O)O
SCANS=815449
COLLISION_ENERGY=40.0
MS_MASS_ANALYZER=quadrupole
SPECTRUM_ID=CCMSLIB00000426918
IONMODE=positive
MS_LEVEL=2
PRECURSOR_MZ=160.097
41.651 91.057 
43.63 16.667 
55.534 3.074 
57.505 100.0 
73.348 5.335 
76.309 8.638 
85.32 10.01 
END IONS

BEGIN IONS
TITLE=CCMSLIB00010011085
PEPMASS=174.112
CHARGE=1+
COMPOUND_NAME=Gly-C6:0
ADDUCT=[M+H]1+
SMILES=CCCCCC(=O)NCC(=O)O
SCANS=124381
COLLISION_ENERGY=26.0
MS_MANUFACTURER=Bruker Daltonics
MS_MASS_ANALYZER=qtof
MS_IONISATION=ESI
SPECTRUM_ID=CCMSLIB00010011085
IONMODE=positive
MS_LEVEL=2
PRECURSOR_MZ=174.112
76.040131 658.0 
99.080231 334.0 
118.065208 89.0 
128.049896 150.0 
130.064148 142.0 
133.054413 86.0 
144.042694 274.0 
146.059647 190.0 
END IONS

BEGIN IONS
TITLE=CCMSLIB00006681157
PEPMASS=174.112
CHARGE=1+
COMPOUND_NAME=HEXANOYLGLYCINE
ADDUCT=[M+H]1+
SMILES=CCCCCC(=O)NCC(=O)O
SCANS=802534
MS_MASS_ANALYZER=qtof
MS_IONISATION=ESI
SPECTRUM_ID=CCMSLIB00006681157
IONMODE=positive
MS_LEVEL=2
PRECURSOR_MZ=174.112
39.01445 1.1 
41.030151 27.700001 
41.054508 0.8 
43.045441 100.0 
43.070839 4.2 
43.080318 3.9 
44.04842 0.6 
55.045139 3.1 
57.024521 0.5 
76.02787 0.7 
END IONS

BEGIN IONS
TITLE=CCMSLIB00011906295
PEPMASS=202.084
CHARGE=1+
COMPOUND_NAME=N-Acetyl-tyramine
ADDUCT=[M+Na]1+
SMILES=CC(=O)NCCc1ccc(O)cc1
SCANS=128750
COLLISION_ENERGY=35.0
MS_MANUFACTURER=Thermo
MS_MASS_ANALYZER=orbitrap
MS_IONISATION=ESI
MS_DISSOCIATION_METHOD=hcd
SPECTRUM_ID=CCMSLIB00011906295
IONMODE=positive
MS_LEVEL=2
PRECURSOR_MZ=202.084
50.519985 4666.344727 
52.729717 4211.078613 
54.18816 3888.5354 
84.081337 5581.074707 
91.055077 4958.262695 
97.601891 3960.119873 
148.260788 4130.92041 
202.083878 320948.71875 
202.122696 29342.789062 
END IONS

BEGIN IONS
TITLE=CCMSLIB00000478582
PEPMASS=844.453
CHARGE=1+
COMPOUND_NAME=Tubulysin A
ADDUCT=[M+H]1+
SMILES=CCC(C)C(NC(=O)C1CCCCN1C)C(=O)N(COC(=O)CC(C)C)C(CC(OC(C)=O)c1nc(C(=O)NC(Cc2ccc(O)cc2)CC(C)C(=O)O)cs1)C(C)C
SCANS=2300
MS_MASS_ANALYZER=qtof
MS_IONISATION=ESI
SPECTRUM_ID=CCMSLIB00000478582
IONMODE=positive
MS_LEVEL=2
PRECURSOR_MZ=844.453
207.100754 61.0 
211.180756 27649.0 
212.183899 3859.0 
213.186371 350.0 
221.074326 1516.0 
222.077805 211.0 
223.070206 80.0 
225.159866 54.0 
238.100998 999.0 
239.084763 560.0 
239.102905 110.0 
239.17598 57733.0 
240.08754 64.0 
240.096375 55.0 
240.178696 10669.0 
241.181366 1061.0 
242.182983 76.0 
298.122192 253.0 
317.095306 1222.0 
318.098358 265.0 
319.093445 82.0 
322.249084 102.0 
335.106262 151.0 
343.111481 672.0 
344.114166 145.0 
358.122009 82.0 
361.121582 1289.0 
362.124664 269.0 
363.119293 71.0 
397.157837 963.0 
398.161469 250.0 
399.173523 1227.0 
400.177032 332.0 
401.171875 113.0 
409.161469 93.0 
415.168549 921.0 
416.171875 333.0 
417.183868 770.0 
418.187347 230.0 
426.184662 16086.0 
427.187439 4475.0 
428.184784 1043.0 
429.186401 237.0 
444.195282 20283.0 
445.198181 5816.0 
446.19577 1390.0 
447.196594 378.0 
457.178467 64.0 
462.205658 1804.0 
463.209076 482.0 
464.206543 161.0 
475.189575 741.0 
476.194 210.0 
486.205688 1444.0 
487.208984 476.0 
488.205261 137.0 
504.217255 54622.0 
504.306641 68.0 
505.219971 15959.0 
506.218109 4272.0 
507.218475 932.0 
508.219269 197.0 
518.232483 779.0 
519.236084 278.0 
520.23584 104.0 
682.36145 67.0 
742.38208 1229.0 
743.385315 587.0 
744.387634 230.0 
745.391113 62.0 
END IONS

BEGIN IONS
TITLE=CCMSLIB00006681313
PEPMASS=174.112
CHARGE=1+
COMPOUND_NAME=HEXANOYLGLYCINE
ADDUCT=[M+H]1+
SMILES=CCCCCC(=O)NCC(=O)O
SCANS=802685
MS_MASS_ANALYZER=qtof
MS_IONISATION=ESI
SPECTRUM_ID=CCMSLIB00006681313
IONMODE=positive
MS_LEVEL=2
PRECURSOR_MZ=174.112
41.0299 2.2 
43.045502 100.0 
43.079868 4.3 
48.035549 1.3 
55.044521 1.3 
71.0755 31.9 
71.107498 1.2 
76.028847 18.700001 
99.069717 4.1 
END IONS

BEGIN IONS
TITLE=CCMSLIB00012352518
PEPMASS=180.102
CHARGE=1+
COMPOUND_NAME=N-Acetyltyramine
ADDUCT=[M+H]1+
SMILES=CC(=O)NCCc1ccc(O)cc1
SCANS=177790
MS_MANUFACTURER=Thermo
MS_MASS_ANALYZER=orbitrap
MS_IONISATION=ESI
SPECTRUM_ID=CCMSLIB00012352518
IONMODE=positive
MS_LEVEL=2
PRECURSOR_MZ=180.102
43.017815 0.627 
51.022881 0.872 
53.038509 1.852 
55.01778 0.589 
60.044258 0.3 
65.03846 0.626 
77.03846 1.282 
79.020958 0.226 
86.059914 0.222 
91.054077 16.787001 
91.059967 0.262 
93.069725 9.827 
95.048988 26.385 
95.055428 0.501 
95.0597 0.274 
97.007164 0.29 
99.003731 0.642 
101.002953 4.225 
102.006241 2.505 
102.046234 0.624 
103.054108 20.004999 
103.061165 0.321 
105.044624 4.269 
110.994995 0.255 
112.488274 0.269 
120.000092 0.764 
121.064606 100.0 
121.07341 1.26 
121.080498 1.169 
121.084999 0.794 
121.090523 0.299 
138.091202 13.061 
138.101303 0.227 
157.01088 0.285 
180.102081 8.928 
END IONS

BEGIN IONS
TITLE=CCMSLIB00012352520
PEPMASS=180.102
CHARGE=1+
COMPOUND_NAME=N-Acetyltyramine
ADDUCT=[M+H]1+
SMILES=CC(=O)NCCc1ccc(O)cc1
SCANS=177791
MS_MANUFACTURER=Thermo
MS_MASS_ANALYZER=orbitrap
MS_IONISATION=ESI
SPECTRUM_ID=CCMSLIB00012352520
IONMODE=positive
MS_LEVEL=2
PRECURSOR_MZ=180.102
43.017815 2.374 
51.022881 3.306 
53.038509 7.019 
55.01778 2.232 
60.044289 0.835 
65.03846 2.374 
77.03846 4.86 
91.054077 63.622002 
91.059967 0.994 
93.069748 37.247002 
95.048988 100.0 
95.055428 1.901 
95.0597 1.04 
97.007164 1.101 
99.003731 2.433 
102.046234 2.366 
103.054115 75.820999 
103.061165 1.218 
105.044624 16.18 
121.064735 45.571999 
END IONS

